POSCAR file written by OVITO Basic 3.7.1
   1.00000000000000     
     9.7954724772017361   -0.0033352748332221   -0.0000005323996271
     4.9014529040371686    8.4815620669228924    0.0000083920420373
    -0.0000026674101863    0.0000512442720885   49.9517523337282299
   C 
    62
Direct
  0.0003710890161770  0.0003252275672310  0.4575152428195040
  0.0834272641182281  0.0834027294086752  0.4562825368292565
  0.0003724980601589  0.0003287676712276  0.3824871247388941
  0.0834304219141870  0.0834067238412644  0.3837238390444924
  0.9985413067864570  0.2505904418655831  0.4553754642377257
  0.0834201826670551  0.3329098369031058  0.4562752879063510
  0.9985413324172043  0.2505957599713113  0.3846303918655067
  0.0834233473658870  0.3329095991348154  0.3837305157427195
  0.0003831698920465  0.4990181131364864  0.4575042044279272
  0.0842918204638465  0.5827115255438997  0.4559284865857620
  0.0003833084716547  0.4990245673325475  0.3824971977436391
  0.0842922307514371  0.5827139098933785  0.3840697175523928
  0.0000884356343676  0.7498171837849625  0.4572214947503923
  0.0842978169746260  0.8327345794456846  0.4559360883192838
  0.0000938298770166  0.7498210427425036  0.3827759379027995
  0.0842976815140091  0.8327392798286724  0.3840629209492619
  0.2506088130299560  0.9985302370974054  0.4553622388015910
  0.3329357336191094  0.0833959084431939  0.4562614639950198
  0.2506122209953929  0.9985327976030334  0.3846431772076855
  0.3329317596320536  0.0834015491176459  0.3837439112737187
  0.2506077936318150  0.2505796546304992  0.4553568771848191
  0.3337834296115432  0.3337384593654917  0.4496441739085455
  0.2506101590915719  0.2505824018659268  0.3846482362984460
  0.3337835627163130  0.3337404361523895  0.3903555840057962
  0.2457433010774750  0.5014202982761518  0.4480032956757967
  0.2931547114805824  0.6032918631599742  0.4343397731037442
  0.2457488415075844  0.5014238627938354  0.3919944567226992
  0.2931590851650299  0.6032915518322284  0.4056575288584838
  0.2457515682032962  0.7525502174910912  0.4480083304566094
  0.3337929112175715  0.8321973203724369  0.4496505129342125
  0.2457583617789112  0.7525491806694902  0.3919900573108421
  0.3337942108415888  0.8322020115194775  0.3903497269993466
  0.4990560533592543  0.0003405432983712  0.4574862909035460
  0.5827587966768135  0.0842201833861367  0.4559135766273883
  0.4990620543844955  0.0003423230488195  0.3825144260714239
  0.5827593296092601  0.0842223663815744  0.3840841918886184
  0.5014687773617936  0.2456662265698881  0.4479981111555560
  0.6033503179578261  0.2930767783751236  0.4343376441144713
  0.5014718570396042  0.2456722871091728  0.3919997643985056
  0.6033493353327088  0.2930810607450596  0.4056600264572410
  0.6033544399980713  0.6033154482462777  0.4343368584085567
  0.6033557639713365  0.6033173854293352  0.4056606538013270
  0.5014755403474283  0.7525946136352673  0.4480000540224296
  0.5827583568668402  0.8327599964376802  0.4559112244744767
  0.5014797141822598  0.7525943621095692  0.3919982520155116
  0.5827601735735541  0.8327659871538202  0.3840868025106801
  0.7498769943765993  0.0000157536482916  0.4572112561786028
  0.8327858269210608  0.0842318261568664  0.4559343590235514
  0.7498782393521495  0.0000245401495178  0.3827857979428586
  0.8327887076064542  0.0842330399314690  0.3840646141267499
  0.7525905098883641  0.2456976902318502  0.4480145417665824
  0.8321957655757330  0.3337707026892502  0.4496655871422846
  0.7525885531548511  0.2457059177363377  0.3919842700883649
  0.8322000475315434  0.3337724283110077  0.3903352082367206
  0.7526064803019636  0.5014413360028627  0.4480113860431700
  0.8327860904327835  0.5827267440784354  0.4559243155746202
  0.7526047914883520  0.5014468870630253  0.3919872805782418
  0.8327915034702329  0.5827298426857013  0.3840741677914465
  0.7498957809776527  0.7498473814459814  0.4572043114469793
  0.8332861023350731  0.8332228513847895  0.4584463227353339
  0.7498967427878966  0.7498509772205821  0.3827924794052180
  0.8332886061834586  0.8332255369236634  0.3815504289161780
 
  0.00000000E+00  0.00000000E+00  0.00000000E+00
  0.00000000E+00  0.00000000E+00  0.00000000E+00
  0.00000000E+00  0.00000000E+00  0.00000000E+00
  0.00000000E+00  0.00000000E+00  0.00000000E+00
  0.00000000E+00  0.00000000E+00  0.00000000E+00
  0.00000000E+00  0.00000000E+00  0.00000000E+00
  0.00000000E+00  0.00000000E+00  0.00000000E+00
  0.00000000E+00  0.00000000E+00  0.00000000E+00
  0.00000000E+00  0.00000000E+00  0.00000000E+00
  0.00000000E+00  0.00000000E+00  0.00000000E+00
  0.00000000E+00  0.00000000E+00  0.00000000E+00
  0.00000000E+00  0.00000000E+00  0.00000000E+00
  0.00000000E+00  0.00000000E+00  0.00000000E+00
  0.00000000E+00  0.00000000E+00  0.00000000E+00
  0.00000000E+00  0.00000000E+00  0.00000000E+00
  0.00000000E+00  0.00000000E+00  0.00000000E+00
  0.00000000E+00  0.00000000E+00  0.00000000E+00
  0.00000000E+00  0.00000000E+00  0.00000000E+00
  0.00000000E+00  0.00000000E+00  0.00000000E+00
  0.00000000E+00  0.00000000E+00  0.00000000E+00
  0.00000000E+00  0.00000000E+00  0.00000000E+00
  0.00000000E+00  0.00000000E+00  0.00000000E+00
  0.00000000E+00  0.00000000E+00  0.00000000E+00
  0.00000000E+00  0.00000000E+00  0.00000000E+00
  0.00000000E+00  0.00000000E+00  0.00000000E+00
  0.00000000E+00  0.00000000E+00  0.00000000E+00
  0.00000000E+00  0.00000000E+00  0.00000000E+00
  0.00000000E+00  0.00000000E+00  0.00000000E+00
  0.00000000E+00  0.00000000E+00  0.00000000E+00
  0.00000000E+00  0.00000000E+00  0.00000000E+00
  0.00000000E+00  0.00000000E+00  0.00000000E+00
  0.00000000E+00  0.00000000E+00  0.00000000E+00
  0.00000000E+00  0.00000000E+00  0.00000000E+00
  0.00000000E+00  0.00000000E+00  0.00000000E+00
  0.00000000E+00  0.00000000E+00  0.00000000E+00
  0.00000000E+00  0.00000000E+00  0.00000000E+00
  0.00000000E+00  0.00000000E+00  0.00000000E+00
  0.00000000E+00  0.00000000E+00  0.00000000E+00
  0.00000000E+00  0.00000000E+00  0.00000000E+00
  0.00000000E+00  0.00000000E+00  0.00000000E+00
  0.00000000E+00  0.00000000E+00  0.00000000E+00
  0.00000000E+00  0.00000000E+00  0.00000000E+00
  0.00000000E+00  0.00000000E+00  0.00000000E+00
  0.00000000E+00  0.00000000E+00  0.00000000E+00
  0.00000000E+00  0.00000000E+00  0.00000000E+00
  0.00000000E+00  0.00000000E+00  0.00000000E+00
  0.00000000E+00  0.00000000E+00  0.00000000E+00
  0.00000000E+00  0.00000000E+00  0.00000000E+00
  0.00000000E+00  0.00000000E+00  0.00000000E+00
  0.00000000E+00  0.00000000E+00  0.00000000E+00
  0.00000000E+00  0.00000000E+00  0.00000000E+00
  0.00000000E+00  0.00000000E+00  0.00000000E+00
  0.00000000E+00  0.00000000E+00  0.00000000E+00
  0.00000000E+00  0.00000000E+00  0.00000000E+00
  0.00000000E+00  0.00000000E+00  0.00000000E+00
  0.00000000E+00  0.00000000E+00  0.00000000E+00
  0.00000000E+00  0.00000000E+00  0.00000000E+00
  0.00000000E+00  0.00000000E+00  0.00000000E+00
  0.00000000E+00  0.00000000E+00  0.00000000E+00
  0.00000000E+00  0.00000000E+00  0.00000000E+00
  0.00000000E+00  0.00000000E+00  0.00000000E+00
  0.00000000E+00  0.00000000E+00  0.00000000E+00
