POSCAR file written by OVITO Basic 3.7.1
   1.00000000000000     
     9.7954724772017361   -0.0033352748332221   -0.0000005323996271
     4.9014529040371686    8.4815620669228924    0.0000083920420373
    -0.0000026674101863    0.0000512442720885   49.9517523337282299
   C 
    62
Direct
  0.0003710890161791  0.0003252275672306  0.4575152428195058
  0.0834272641182293  0.0834027294086766  0.4562825368292578
  0.0003724980601617  0.0003287676712263  0.3824871247388957
  0.0834304219141860  0.0834067238412662  0.3837238390444958
  0.9985413067864549  0.2505904418655827  0.4553754642377254
  0.0834201826670557  0.3329098369031082  0.4562752879063516
  0.9985413324172017  0.2505957599713097  0.3846303918655042
  0.0834233473658853  0.3329095991348179  0.3837305157427177
  0.0003831698920435  0.4990181131364834  0.4575042044279263
  0.0842918204638442  0.5827115255439026  0.4559284865857594
  0.0003833084716535  0.4990245673325478  0.3824971977436417
  0.0842922307514371  0.5827139098933783  0.3840697175523956
  1.0000884356343640  0.7498171837849653  0.4572214947503924
  0.0842978169746285  0.8327345794456877  0.4559360883192846
  1.0000938298770197  0.7498210427425018  0.3827759379028010
  0.0842976815140114  0.8327392798286688  0.3840629209492585
  0.2506088130299590  0.9985302370974020  0.4553622388015883
  0.3329357336191107  0.0833959084431913  0.4562614639950190
  0.2506122209953918  0.9985327976030342  0.3846431772076856
  0.3329317596320545  0.0834015491176436  0.3837439112737187
  0.2506077936318141  0.2505796546304971  0.4553568771848193
  0.3337834296115408  0.3337384593654936  0.4496441739085454
  0.2506101590915740  0.2505824018659304  0.3846482362984473
  0.3337835627163109  0.3337404361523924  0.3903555840057938
  0.2457433010774752  0.5014202982761525  0.4480032956757997
  0.2931547114805805  0.6032918631599746  0.4343397731037413
  0.2457488415075857  0.5014238627938384  0.3919944567226960
  0.2931590851650269  0.6032915518322295  0.4056575288584843
  0.2457515682032947  0.7525502174910909  0.4480083304566094
  0.3337929112175704  0.8321973203724362  0.4496505129342101
  0.2457583617789092  0.7525491806694923  0.3919900573108401
  0.3337942108415858  0.8322020115194808  0.3903497269993477
  0.4990560533592564  0.0003405432983687  0.4574862909035429
  0.5827587966768139  0.0842201833861379  0.4559135766273895
  0.4990620543844959  0.0003423230488177  0.3825144260714248
  0.5827593296092616  0.0842223663815753  0.3840841918886158
  0.5014687773617954  0.2456662265698894  0.4479981111555595
  0.6033503179578291  0.2930767783751260  0.4343376441144728
  0.5014718570396068  0.2456722871091747  0.3919997643985086
  0.6033493353327102  0.2930810607450597  0.4056600264572382
  0.6033544399980687  0.6033154482462785  0.4343368584085556
  0.6033557639713337  0.6033173854293330  0.4056606538013257
  0.5014755403474287  0.7525946136352686  0.4480000540224279
  0.5827583568668424  0.8327599964376802  0.4559112244744773
  0.5014797141822631  0.7525943621095667  0.3919982520155125
  0.5827601735735529  0.8327659871538206  0.3840868025106817
  0.7498769943766004  1.0000157536482892  0.4572112561785994
  0.8327858269210586  0.0842318261568635  0.4559343590235522
  0.7498782393521488  1.0000245401495189  0.3827857979428590
  0.8327887076064571  0.0842330399314660  0.3840646141267474
  0.7525905098883613  0.2456976902318486  0.4480145417665813
  0.8321957655757337  0.3337707026892489  0.4496655871422872
  0.7525885531548505  0.2457059177363395  0.3919842700883656
  0.8322000475315419  0.3337724283110056  0.3903352082367199
  0.7526064803019609  0.5014413360028601  0.4480113860431719
  0.8327860904327803  0.5827267440784356  0.4559243155746170
  0.7526047914883510  0.5014468870630259  0.3919872805782426
  0.8327915034702363  0.5827298426856978  0.3840741677914448
  0.7498957809776559  0.7498473814459800  0.4572043114469759
  0.8332861023350755  0.8332228513847902  0.4584463227353324
  0.7498967427878982  0.7498509772205811  0.3827924794052161
  0.8332886061834591  0.8332255369236659  0.3815504289161805
 
  0.00000000E+00  0.00000000E+00  0.00000000E+00
  0.00000000E+00  0.00000000E+00  0.00000000E+00
  0.00000000E+00  0.00000000E+00  0.00000000E+00
  0.00000000E+00  0.00000000E+00  0.00000000E+00
  0.00000000E+00  0.00000000E+00  0.00000000E+00
  0.00000000E+00  0.00000000E+00  0.00000000E+00
  0.00000000E+00  0.00000000E+00  0.00000000E+00
  0.00000000E+00  0.00000000E+00  0.00000000E+00
  0.00000000E+00  0.00000000E+00  0.00000000E+00
  0.00000000E+00  0.00000000E+00  0.00000000E+00
  0.00000000E+00  0.00000000E+00  0.00000000E+00
  0.00000000E+00  0.00000000E+00  0.00000000E+00
  0.00000000E+00  0.00000000E+00  0.00000000E+00
  0.00000000E+00  0.00000000E+00  0.00000000E+00
  0.00000000E+00  0.00000000E+00  0.00000000E+00
  0.00000000E+00  0.00000000E+00  0.00000000E+00
  0.00000000E+00  0.00000000E+00  0.00000000E+00
  0.00000000E+00  0.00000000E+00  0.00000000E+00
  0.00000000E+00  0.00000000E+00  0.00000000E+00
  0.00000000E+00  0.00000000E+00  0.00000000E+00
  0.00000000E+00  0.00000000E+00  0.00000000E+00
  0.00000000E+00  0.00000000E+00  0.00000000E+00
  0.00000000E+00  0.00000000E+00  0.00000000E+00
  0.00000000E+00  0.00000000E+00  0.00000000E+00
  0.00000000E+00  0.00000000E+00  0.00000000E+00
  0.00000000E+00  0.00000000E+00  0.00000000E+00
  0.00000000E+00  0.00000000E+00  0.00000000E+00
  0.00000000E+00  0.00000000E+00  0.00000000E+00
  0.00000000E+00  0.00000000E+00  0.00000000E+00
  0.00000000E+00  0.00000000E+00  0.00000000E+00
  0.00000000E+00  0.00000000E+00  0.00000000E+00
  0.00000000E+00  0.00000000E+00  0.00000000E+00
  0.00000000E+00  0.00000000E+00  0.00000000E+00
  0.00000000E+00  0.00000000E+00  0.00000000E+00
  0.00000000E+00  0.00000000E+00  0.00000000E+00
  0.00000000E+00  0.00000000E+00  0.00000000E+00
  0.00000000E+00  0.00000000E+00  0.00000000E+00
  0.00000000E+00  0.00000000E+00  0.00000000E+00
  0.00000000E+00  0.00000000E+00  0.00000000E+00
  0.00000000E+00  0.00000000E+00  0.00000000E+00
  0.00000000E+00  0.00000000E+00  0.00000000E+00
  0.00000000E+00  0.00000000E+00  0.00000000E+00
  0.00000000E+00  0.00000000E+00  0.00000000E+00
  0.00000000E+00  0.00000000E+00  0.00000000E+00
  0.00000000E+00  0.00000000E+00  0.00000000E+00
  0.00000000E+00  0.00000000E+00  0.00000000E+00
  0.00000000E+00  0.00000000E+00  0.00000000E+00
  0.00000000E+00  0.00000000E+00  0.00000000E+00
  0.00000000E+00  0.00000000E+00  0.00000000E+00
  0.00000000E+00  0.00000000E+00  0.00000000E+00
  0.00000000E+00  0.00000000E+00  0.00000000E+00
  0.00000000E+00  0.00000000E+00  0.00000000E+00
  0.00000000E+00  0.00000000E+00  0.00000000E+00
  0.00000000E+00  0.00000000E+00  0.00000000E+00
  0.00000000E+00  0.00000000E+00  0.00000000E+00
  0.00000000E+00  0.00000000E+00  0.00000000E+00
  0.00000000E+00  0.00000000E+00  0.00000000E+00
  0.00000000E+00  0.00000000E+00  0.00000000E+00
  0.00000000E+00  0.00000000E+00  0.00000000E+00
  0.00000000E+00  0.00000000E+00  0.00000000E+00
  0.00000000E+00  0.00000000E+00  0.00000000E+00
  0.00000000E+00  0.00000000E+00  0.00000000E+00
