POSCAR file written by OVITO Basic 3.7.1
   1.00000000000000     
     9.8317469712022323    0.1549213990993703   -0.0123016229689148
     5.0566645667729766    8.4331927081243201   -0.0130999294414985
    -0.0617916203604761   -0.0404358425619197   49.9591136371565412
   C 
    62
Direct
  0.9954467441953737  0.9953288396567128  0.3833241984824335
  0.0762193707840525  0.0760958800415604  0.3828102761748244
  0.0807266273982188  0.0807999883188176  0.4529651959267499
  0.1619430318330580  0.1620121135870064  0.4498467725320993
  0.0037159249534282  0.2421489037715298  0.3834571008800193
  0.1107380762105428  0.2969799203791580  0.3849621335586172
  0.0797236628064168  0.3309316391285119  0.4499575500402023
  0.1610311140834449  0.4112008724300534  0.4451548988782950
  0.0234146785954729  0.4745541850581614  0.3865373335270998
  0.0935767521403102  0.5724204434945471  0.3886824171284723
  0.0940763707251262  0.5730979413824656  0.4513153223523369
  0.1919348185853626  0.6432672474379646  0.4534595220947241
  0.0021745070397372  0.7424625756913946  0.3852031790220717
  0.0822719651432685  0.8274272151882046  0.3844425171423983
  0.0933853466781381  0.8216260342775499  0.4542304893577785
  0.1685784974272973  0.9110051591148018  0.4543027974243592
  0.2422681939907319  0.0035961171391722  0.3834630406679321
  0.2970988373631182  0.1106190929501807  0.3849652090622680
  0.3308638749572833  0.0797853292961414  0.4499542107483240
  0.4111451587124693  0.1610834990771493  0.4451559619224494
  0.3514157507236553  0.3513526118165156  0.4077860638882415
  0.3151896726522917  0.3152112931337305  0.4322140655613299
  0.2554603004585349  0.5054805949155393  0.3948438669221458
  0.3357419607473459  0.5867783768276612  0.3900462716857377
  0.3695065675670492  0.5559445203846968  0.4550355568647402
  0.4243375927520157  0.6629678725855536  0.4565377825678403
  0.2495161164601475  0.7512840818992245  0.3853500285340398
  0.3309768671828352  0.8359283151419610  0.3844598619347180
  0.3356291950132897  0.8306353188905471  0.4555409123177146
  0.4170898749392100  0.9152795156456197  0.4546498397455871
  0.4746707868309684  0.0232966183965857  0.3865403542781355
  0.5725289807043862  0.0934665194289214  0.3886837387644622
  0.5730296916605063  0.0941429327826023  0.4513165384121868
  0.6431911286741422  0.1920094598831270  0.4534626515278884
  0.5055748638641624  0.2553626334758105  0.3948450775750249
  0.5868821893469539  0.3356322055781313  0.3900432622824905
  0.5558676655160457  0.3695834250813390  0.4550388024090531
  0.6628900438104981  0.4244148545394277  0.4565441058600862
  0.5046628029532476  0.5045517635617141  0.3901546561730797
  0.5858796131111058  0.5857641368902086  0.3870364052754649
  0.5903864458105078  0.5904678036412021  0.4571902299910204
  0.6711585341900059  0.6712344303725221  0.4566745431660100
  0.4980271384829453  0.7555587800335613  0.3856983314919730
  0.5732205548570701  0.8449379330778000  0.3857696733192534
  0.5843341175426144  0.8391364271074896  0.4555556938537041
  0.6644316091528530  0.9241003076641572  0.4547945865875793
  0.7425758360201250  0.0020593658833250  0.3852022740344259
  0.8275430851107284  0.0821531792552648  0.3844379332719180
  0.8215489050125329  0.0934627275874514  0.4542336338875383
  0.9109286423318084  0.1686553336248290  0.4543084432976313
  0.7513944806600817  0.2494006988387862  0.3853425127105638
  0.8360447161103758  0.3308568151597153  0.3844510247185105
  0.8305612260308813  0.3357070710501825  0.4555503312920240
  0.9152113688512784  0.4171632186741059  0.4546579174521549
  0.7556773062352699  0.4979083530028994  0.3856930310861897
  0.8450570891066841  0.5731011535026445  0.3857666880186942
  0.8390627148674432  0.5844107782827037  0.4555606306207866
  0.9240290569880651  0.6645048139639298  0.4547956548845981
  0.7496889427944744  0.7495705233895837  0.3857686574598766
  0.8312799868883379  0.8311632581888644  0.3846850571157910
  0.8353257647405337  0.8354005526479705  0.4553125930422960
  0.9169168832262601  0.9169933404999753  0.4542305891939313
 
  0.00000000E+00  0.00000000E+00  0.00000000E+00
  0.00000000E+00  0.00000000E+00  0.00000000E+00
  0.00000000E+00  0.00000000E+00  0.00000000E+00
  0.00000000E+00  0.00000000E+00  0.00000000E+00
  0.00000000E+00  0.00000000E+00  0.00000000E+00
  0.00000000E+00  0.00000000E+00  0.00000000E+00
  0.00000000E+00  0.00000000E+00  0.00000000E+00
  0.00000000E+00  0.00000000E+00  0.00000000E+00
  0.00000000E+00  0.00000000E+00  0.00000000E+00
  0.00000000E+00  0.00000000E+00  0.00000000E+00
  0.00000000E+00  0.00000000E+00  0.00000000E+00
  0.00000000E+00  0.00000000E+00  0.00000000E+00
  0.00000000E+00  0.00000000E+00  0.00000000E+00
  0.00000000E+00  0.00000000E+00  0.00000000E+00
  0.00000000E+00  0.00000000E+00  0.00000000E+00
  0.00000000E+00  0.00000000E+00  0.00000000E+00
  0.00000000E+00  0.00000000E+00  0.00000000E+00
  0.00000000E+00  0.00000000E+00  0.00000000E+00
  0.00000000E+00  0.00000000E+00  0.00000000E+00
  0.00000000E+00  0.00000000E+00  0.00000000E+00
  0.00000000E+00  0.00000000E+00  0.00000000E+00
  0.00000000E+00  0.00000000E+00  0.00000000E+00
  0.00000000E+00  0.00000000E+00  0.00000000E+00
  0.00000000E+00  0.00000000E+00  0.00000000E+00
  0.00000000E+00  0.00000000E+00  0.00000000E+00
  0.00000000E+00  0.00000000E+00  0.00000000E+00
  0.00000000E+00  0.00000000E+00  0.00000000E+00
  0.00000000E+00  0.00000000E+00  0.00000000E+00
  0.00000000E+00  0.00000000E+00  0.00000000E+00
  0.00000000E+00  0.00000000E+00  0.00000000E+00
  0.00000000E+00  0.00000000E+00  0.00000000E+00
  0.00000000E+00  0.00000000E+00  0.00000000E+00
  0.00000000E+00  0.00000000E+00  0.00000000E+00
  0.00000000E+00  0.00000000E+00  0.00000000E+00
  0.00000000E+00  0.00000000E+00  0.00000000E+00
  0.00000000E+00  0.00000000E+00  0.00000000E+00
  0.00000000E+00  0.00000000E+00  0.00000000E+00
  0.00000000E+00  0.00000000E+00  0.00000000E+00
  0.00000000E+00  0.00000000E+00  0.00000000E+00
  0.00000000E+00  0.00000000E+00  0.00000000E+00
  0.00000000E+00  0.00000000E+00  0.00000000E+00
  0.00000000E+00  0.00000000E+00  0.00000000E+00
  0.00000000E+00  0.00000000E+00  0.00000000E+00
  0.00000000E+00  0.00000000E+00  0.00000000E+00
  0.00000000E+00  0.00000000E+00  0.00000000E+00
  0.00000000E+00  0.00000000E+00  0.00000000E+00
  0.00000000E+00  0.00000000E+00  0.00000000E+00
  0.00000000E+00  0.00000000E+00  0.00000000E+00
  0.00000000E+00  0.00000000E+00  0.00000000E+00
  0.00000000E+00  0.00000000E+00  0.00000000E+00
  0.00000000E+00  0.00000000E+00  0.00000000E+00
  0.00000000E+00  0.00000000E+00  0.00000000E+00
  0.00000000E+00  0.00000000E+00  0.00000000E+00
  0.00000000E+00  0.00000000E+00  0.00000000E+00
  0.00000000E+00  0.00000000E+00  0.00000000E+00
  0.00000000E+00  0.00000000E+00  0.00000000E+00
  0.00000000E+00  0.00000000E+00  0.00000000E+00
  0.00000000E+00  0.00000000E+00  0.00000000E+00
  0.00000000E+00  0.00000000E+00  0.00000000E+00
  0.00000000E+00  0.00000000E+00  0.00000000E+00
  0.00000000E+00  0.00000000E+00  0.00000000E+00
  0.00000000E+00  0.00000000E+00  0.00000000E+00
