Global Parameters
ISTART =  0            (Not Read existing wavefunction; if there)
ISPIN  =  1            (Non-Spin polarised DFT, Default=1)

ICHARG =  2            (The initial guess charge density is generated by superposition of atomic charge density)
LREAL  =  False        (Projection operators: automatic)
ENCUT  =  850          (Cut-off energy for plane wave basis set, in eV)
IVDW   =  202          (The many-body dispersion energy method)

LWAVE  = .FALSE.       (Write WAVECAR or not)
LCHARG = .FALSE.       (Write CHGCAR or not)

PREC     =  Accurate   (Precision level)
KGAMMA   = .TRUE.      # GAMMA point
KSPACING = 0.15        # Automatically calculate k-points
ALGO     = Normal

Static Calculation
NSW    =   1000        (Max Ionic SCF steps)
ISIF   =   3           (Fixed the cell shape)
IBRION =   1           (Ions are not moved)
ISMEAR =  -5           (gaussian smearing method)
SIGMA  =  0.02         (SIGMA is ignored for the tetrahedron method when ISMEAR = -5)
EDIFF  =  1E-07        (SCF energy convergence; in eV)
EDIFFG =  1e-02        (Ionic relaxation convergence; energy in eV/atom (positive) and force in eV/A (negative))
NELM   =  150          (Max electronic SCF steps)
NCORE  =  8            # one orbital handled by 4 cores

