POSCAR file written by OVITO Basic 3.7.1
   1.00000000000000     
     9.8467199999999995    0.0000000000000000    0.0000000000000000
     4.9299999999999997    8.5284800000000001    0.0000000000000000
     0.0000000000000000    0.0000000000000000   50.0000000000000000
   C 
    62
Direct
  0.9967141173564230  0.9965987179057927  0.3838718958463825
  0.0781780857428992  0.0780586143751057  0.3831135455178673
  0.0818501228618481  0.0819445193628324  0.4536630207121742
  0.1636405976641181  0.1637208891674240  0.4507197475919368
  0.0022853110738581  0.2441614203857583  0.3835411022454902
  0.0963962133733372  0.3123538908815322  0.3848852827056871
  0.0809060613118905  0.3319553545685087  0.4504494695057735
  0.1621299331814434  0.4134080257406932  0.4454703525050129
  0.0153090170694036  0.4830893602459373  0.3866104999936105
  0.0907436955945342  0.5762940601531684  0.3890541314754259
  0.0902301750191175  0.5759254583605614  0.4509423700357053
  0.1833588338214606  0.6514396593577448  0.4533808472279983
  0.0014507757599391  0.7445043285633194  0.3858724049315489
  0.0826694786301903  0.8292656929741905  0.3849744535692378
  0.0898653679089687  0.8259757226733373  0.4543444128286819
  0.1685027673777913  0.9130545443488910  0.4547223920679968
  0.2443105814435191  0.0021085316132867  0.3835473501109496
  0.3125202308525309  0.0961818377014879  0.3848903701280127
  0.3318952619022267  0.0809152155829048  0.4504314184342877
  0.4133512601041433  0.1621218260717485  0.4454572226826539
  0.3495383771819328  0.3494928813159386  0.4073706119082178
  0.3170695587661298  0.3170729145363475  0.4326292016192610
  0.2532559251356853  0.5044419038611727  0.3945427551793950
  0.3347114264617281  0.5856531611332362  0.3895683206180041
  0.3540797541978786  0.5703866346046633  0.4551130291830093
  0.4222950545482080  0.6644541825834650  0.4564551292274366
  0.2491528816382176  0.7504099201345865  0.3854314522498959
  0.3318034557111067  0.8345871960928093  0.3843666906464224
  0.3348006924095464  0.8319784987143878  0.4556346775491052
  0.4174514230539815  0.9161525879423833  0.4545674320814370
  0.4832462930837325  0.0151224252207381  0.3866195372242231
  0.5763742811837034  0.0906388198698210  0.3890563511366464
  0.5758599227988115  0.0902701075241094  0.4509448804271055
  0.6512964756880636  0.1834729075430786  0.4533905605093498
  0.5044752659677002  0.2531562775236260  0.3945296351154253
  0.5857028030405594  0.3346106657253801  0.3895510822681553
  0.5702149252490079  0.3542052782152059  0.4551181630616622
  0.6643192807946782  0.4224025945359231  0.4564612961064227
  0.5029680247310988  0.5028458746556722  0.3892837811694232
  0.5847544937600950  0.5846160400876805  0.3863408980517052
  0.5884286597192462  0.5885041410279800  0.4568872384821046
  0.6698928842605515  0.6699655249918891  0.4561255848370118
  0.4981018232539869  0.7535089491562731  0.3852804767168601
  0.5767378836932137  0.8405930126649833  0.3856542950306266
  0.5839366605906057  0.8372885445425381  0.4550218394095142
  0.6651566240138415  0.9220619134537049  0.4541236260626763
  0.7446010649050756  0.0013406061469521  0.3858722715851105
  0.8293484398944264  0.0825765248628574  0.3849663554164902
  0.8258493085414426  0.0899812076636955  0.4543539204453026
  0.9129395773722069  0.1686133682755685  0.4547333614803540
  0.7505111748385371  0.2490330524555456  0.3854155487612486
  0.8347141181176501  0.3316770163787662  0.3843540710196916
  0.8318942128598904  0.3348847830708996  0.4556479784999821
  0.9160964074984203  0.4175274913601010  0.4545845512670314
  0.7536659761996959  0.4979511858089913  0.3852699675605591
  0.8407605763977688  0.5765792906621254  0.3856453999273979
  0.8372458887240255  0.5839900105121009  0.4550310070193735
  0.9220078662126362  0.6652241011030017  0.4541239969516781
  0.7496495727492827  0.7494924735265138  0.3858218697997113
  0.8318801717567752  0.8317836343711074  0.3852862926767970
  0.8347237792436409  0.8347788083854197  0.4547084029392362
  0.9169587493077014  0.9170727314535130  0.4541741686623978
 
  0.00000000E+00  0.00000000E+00  0.00000000E+00
  0.00000000E+00  0.00000000E+00  0.00000000E+00
  0.00000000E+00  0.00000000E+00  0.00000000E+00
  0.00000000E+00  0.00000000E+00  0.00000000E+00
  0.00000000E+00  0.00000000E+00  0.00000000E+00
  0.00000000E+00  0.00000000E+00  0.00000000E+00
  0.00000000E+00  0.00000000E+00  0.00000000E+00
  0.00000000E+00  0.00000000E+00  0.00000000E+00
  0.00000000E+00  0.00000000E+00  0.00000000E+00
  0.00000000E+00  0.00000000E+00  0.00000000E+00
  0.00000000E+00  0.00000000E+00  0.00000000E+00
  0.00000000E+00  0.00000000E+00  0.00000000E+00
  0.00000000E+00  0.00000000E+00  0.00000000E+00
  0.00000000E+00  0.00000000E+00  0.00000000E+00
  0.00000000E+00  0.00000000E+00  0.00000000E+00
  0.00000000E+00  0.00000000E+00  0.00000000E+00
  0.00000000E+00  0.00000000E+00  0.00000000E+00
  0.00000000E+00  0.00000000E+00  0.00000000E+00
  0.00000000E+00  0.00000000E+00  0.00000000E+00
  0.00000000E+00  0.00000000E+00  0.00000000E+00
  0.00000000E+00  0.00000000E+00  0.00000000E+00
  0.00000000E+00  0.00000000E+00  0.00000000E+00
  0.00000000E+00  0.00000000E+00  0.00000000E+00
  0.00000000E+00  0.00000000E+00  0.00000000E+00
  0.00000000E+00  0.00000000E+00  0.00000000E+00
  0.00000000E+00  0.00000000E+00  0.00000000E+00
  0.00000000E+00  0.00000000E+00  0.00000000E+00
  0.00000000E+00  0.00000000E+00  0.00000000E+00
  0.00000000E+00  0.00000000E+00  0.00000000E+00
  0.00000000E+00  0.00000000E+00  0.00000000E+00
  0.00000000E+00  0.00000000E+00  0.00000000E+00
  0.00000000E+00  0.00000000E+00  0.00000000E+00
  0.00000000E+00  0.00000000E+00  0.00000000E+00
  0.00000000E+00  0.00000000E+00  0.00000000E+00
  0.00000000E+00  0.00000000E+00  0.00000000E+00
  0.00000000E+00  0.00000000E+00  0.00000000E+00
  0.00000000E+00  0.00000000E+00  0.00000000E+00
  0.00000000E+00  0.00000000E+00  0.00000000E+00
  0.00000000E+00  0.00000000E+00  0.00000000E+00
  0.00000000E+00  0.00000000E+00  0.00000000E+00
  0.00000000E+00  0.00000000E+00  0.00000000E+00
  0.00000000E+00  0.00000000E+00  0.00000000E+00
  0.00000000E+00  0.00000000E+00  0.00000000E+00
  0.00000000E+00  0.00000000E+00  0.00000000E+00
  0.00000000E+00  0.00000000E+00  0.00000000E+00
  0.00000000E+00  0.00000000E+00  0.00000000E+00
  0.00000000E+00  0.00000000E+00  0.00000000E+00
  0.00000000E+00  0.00000000E+00  0.00000000E+00
  0.00000000E+00  0.00000000E+00  0.00000000E+00
  0.00000000E+00  0.00000000E+00  0.00000000E+00
  0.00000000E+00  0.00000000E+00  0.00000000E+00
  0.00000000E+00  0.00000000E+00  0.00000000E+00
  0.00000000E+00  0.00000000E+00  0.00000000E+00
  0.00000000E+00  0.00000000E+00  0.00000000E+00
  0.00000000E+00  0.00000000E+00  0.00000000E+00
  0.00000000E+00  0.00000000E+00  0.00000000E+00
  0.00000000E+00  0.00000000E+00  0.00000000E+00
  0.00000000E+00  0.00000000E+00  0.00000000E+00
  0.00000000E+00  0.00000000E+00  0.00000000E+00
  0.00000000E+00  0.00000000E+00  0.00000000E+00
  0.00000000E+00  0.00000000E+00  0.00000000E+00
  0.00000000E+00  0.00000000E+00  0.00000000E+00
