POSCAR file written by OVITO Basic 3.7.1
   1.00000000000000     
     9.7779374457805766   -0.0402581755716796    0.0289755375062279
     4.8606912417723942    8.4855687336176917    0.0294192129019335
     0.1485969228663461    0.0883016208718143   49.7316569003733591
   C 
    62
Direct
  0.9948240279987530  0.9948538701361542  0.3852632540119174
  0.0780468193376223  0.0781623561469615  0.3859807873544554
  0.0892933745004001  0.0892639038401413  0.4540542426937719
  0.1734612502947428  0.1734187843761035  0.4542489131823615
  0.9945598496640358  0.2445180571269532  0.3864478352039100
  0.0788925288016102  0.3282287675091098  0.3866615231287653
  0.0902235062769563  0.3396781125707591  0.4537255706820389
  0.1763547123858302  0.4235988743270624  0.4513412598464868
  0.9944061970202185  0.4944793448897968  0.3865091423850799
  0.0791735729745540  0.5777325990269091  0.3883439077283413
  0.0878238526538624  0.5915330267524794  0.4505775572790185
  0.1684167321575174  0.6762226221407914  0.4472330544250198
  0.9935197866084380  0.7446610981146975  0.3871512598029625
  0.0772939296864905  0.8281725249002960  0.3872072004091933
  0.0884826417317797  0.8392585850569958  0.4527742028083424
  0.1719244117247030  0.9230931878902595  0.4528391659996700
  0.2444447670990542  0.9946682345597253  0.3864287444312993
  0.3281580000498181  0.0789770769343505  0.3866533205697209
  0.3397630318182010  0.0901029954705024  0.4537423259597873
  0.4236954747784409  0.1761790477709155  0.4513691068688104
  0.2459999410468896  0.2460348120236446  0.3880695207718716
  0.3291896052330188  0.3291864352296230  0.3935693173097405
  0.3405345707790488  0.3402921634919736  0.4503448956508862
  0.2428788944578173  0.4967231518159920  0.3950027983577016
  0.3088466437171178  0.5915470432311949  0.4048270094079314
  0.3250044627953983  0.6080379394361586  0.4351017779217585
  0.4198426135104967  0.6738309609294433  0.4449593620326553
  0.2403913087249450  0.7482349884207196  0.3927134137035466
  0.3249562932771894  0.8289269832194961  0.3893789003615140
  0.3388749109702331  0.8374393304427272  0.4516476373580858
  0.4221552549669951  0.9221314609801041  0.4535039140626935
  0.4944505896816835  0.9944310657664417  0.3864966202823368
  0.5777318379971561  0.0791245887878347  0.3883515952679844
  0.5916482358233282  0.0876379720028666  0.4506214536309372
  0.6762155455371612  0.1683281374776300  0.4472856422301490
  0.4967631491113949  0.2427332103821200  0.3950392077469829
  0.5916007376178669  0.3085265078855173  0.4048967540774129
  0.6077606746287003  0.3250157727559042  0.4351714629465135
  0.6737282495553387  0.4198401588362444  0.4449957378371820
  0.5760710703346774  0.5762706920431242  0.3896548023357482
  0.5874162482679353  0.5873778655258945  0.4464297311525698
  0.6706060658141482  0.6705280612999189  0.4519310999901123
  0.4929104318855622  0.7403847390323577  0.3886312499047477
  0.5768435363925093  0.8264606107697432  0.3862585732518653
  0.5884464744349103  0.8375876338874022  0.4533479648244736
  0.6721622618263936  0.9218947429279964  0.4535729282333421
  0.7446801074753182  0.9934705470459093  0.3871599575943563
  0.8281241644785311  0.0773051465696355  0.3872248377444905
  0.8393117408548889  0.0883921010336195  0.4527918874233450
  0.9230853454115220  0.1719025327998835  0.4528478927426463
  0.7481880328593888  0.2403417181775467  0.3927659723656589
  0.8287829081986402  0.3250298779663510  0.3894228810393514
  0.8374327365209240  0.3388311814289793  0.4516553975124040
  0.9221982423353978  0.4220849441921999  0.4534916041811172
  0.7402493988611312  0.4929661914064454  0.3886592511492921
  0.8263834146517439  0.5768845532203386  0.3862755175807138
  0.8377130625139557  0.5883345277286622  0.4533399109397749
  0.9220455294000658  0.6720462349232506  0.4535539438126577
  0.7431427674690951  0.7431457311680489  0.3857519046984095
  0.8273142479217057  0.8272998256371480  0.3859456398211520
  0.8385579437394597  0.8384019318362448  0.4540208376151256
  0.9217819049593885  0.9217097704516846  0.4547368183577021
 
  0.00000000E+00  0.00000000E+00  0.00000000E+00
  0.00000000E+00  0.00000000E+00  0.00000000E+00
  0.00000000E+00  0.00000000E+00  0.00000000E+00
  0.00000000E+00  0.00000000E+00  0.00000000E+00
  0.00000000E+00  0.00000000E+00  0.00000000E+00
  0.00000000E+00  0.00000000E+00  0.00000000E+00
  0.00000000E+00  0.00000000E+00  0.00000000E+00
  0.00000000E+00  0.00000000E+00  0.00000000E+00
  0.00000000E+00  0.00000000E+00  0.00000000E+00
  0.00000000E+00  0.00000000E+00  0.00000000E+00
  0.00000000E+00  0.00000000E+00  0.00000000E+00
  0.00000000E+00  0.00000000E+00  0.00000000E+00
  0.00000000E+00  0.00000000E+00  0.00000000E+00
  0.00000000E+00  0.00000000E+00  0.00000000E+00
  0.00000000E+00  0.00000000E+00  0.00000000E+00
  0.00000000E+00  0.00000000E+00  0.00000000E+00
  0.00000000E+00  0.00000000E+00  0.00000000E+00
  0.00000000E+00  0.00000000E+00  0.00000000E+00
  0.00000000E+00  0.00000000E+00  0.00000000E+00
  0.00000000E+00  0.00000000E+00  0.00000000E+00
  0.00000000E+00  0.00000000E+00  0.00000000E+00
  0.00000000E+00  0.00000000E+00  0.00000000E+00
  0.00000000E+00  0.00000000E+00  0.00000000E+00
  0.00000000E+00  0.00000000E+00  0.00000000E+00
  0.00000000E+00  0.00000000E+00  0.00000000E+00
  0.00000000E+00  0.00000000E+00  0.00000000E+00
  0.00000000E+00  0.00000000E+00  0.00000000E+00
  0.00000000E+00  0.00000000E+00  0.00000000E+00
  0.00000000E+00  0.00000000E+00  0.00000000E+00
  0.00000000E+00  0.00000000E+00  0.00000000E+00
  0.00000000E+00  0.00000000E+00  0.00000000E+00
  0.00000000E+00  0.00000000E+00  0.00000000E+00
  0.00000000E+00  0.00000000E+00  0.00000000E+00
  0.00000000E+00  0.00000000E+00  0.00000000E+00
  0.00000000E+00  0.00000000E+00  0.00000000E+00
  0.00000000E+00  0.00000000E+00  0.00000000E+00
  0.00000000E+00  0.00000000E+00  0.00000000E+00
  0.00000000E+00  0.00000000E+00  0.00000000E+00
  0.00000000E+00  0.00000000E+00  0.00000000E+00
  0.00000000E+00  0.00000000E+00  0.00000000E+00
  0.00000000E+00  0.00000000E+00  0.00000000E+00
  0.00000000E+00  0.00000000E+00  0.00000000E+00
  0.00000000E+00  0.00000000E+00  0.00000000E+00
  0.00000000E+00  0.00000000E+00  0.00000000E+00
  0.00000000E+00  0.00000000E+00  0.00000000E+00
  0.00000000E+00  0.00000000E+00  0.00000000E+00
  0.00000000E+00  0.00000000E+00  0.00000000E+00
  0.00000000E+00  0.00000000E+00  0.00000000E+00
  0.00000000E+00  0.00000000E+00  0.00000000E+00
  0.00000000E+00  0.00000000E+00  0.00000000E+00
  0.00000000E+00  0.00000000E+00  0.00000000E+00
  0.00000000E+00  0.00000000E+00  0.00000000E+00
  0.00000000E+00  0.00000000E+00  0.00000000E+00
  0.00000000E+00  0.00000000E+00  0.00000000E+00
  0.00000000E+00  0.00000000E+00  0.00000000E+00
  0.00000000E+00  0.00000000E+00  0.00000000E+00
  0.00000000E+00  0.00000000E+00  0.00000000E+00
  0.00000000E+00  0.00000000E+00  0.00000000E+00
  0.00000000E+00  0.00000000E+00  0.00000000E+00
  0.00000000E+00  0.00000000E+00  0.00000000E+00
  0.00000000E+00  0.00000000E+00  0.00000000E+00
  0.00000000E+00  0.00000000E+00  0.00000000E+00
