POSCAR file written by OVITO Basic 3.7.1
   1.00000000000000     
     9.8317469712022323    0.1549213990993703   -0.0123016229689148
     5.0566645667729766    8.4331927081243201   -0.0130999294414985
    -0.0617916203604761   -0.0404358425619197   49.9591136371565412
   C 
    62
Direct
  0.9954467441953767  0.9953288396567146  0.3833241984824340
  0.0762193707840524  0.0760958800415636  0.3828102761748227
  0.0807266273982208  0.0807999883188160  0.4529651959267511
  0.1619430318330615  0.1620121135870036  0.4498467725320978
  0.0037159249534255  0.2421489037715290  0.3834571008800225
  0.1107380762105450  0.2969799203791581  0.3849621335586164
  0.0797236628064155  0.3309316391285151  0.4499575500402031
  0.1610311140834426  0.4112008724300509  0.4451548988782932
  0.0234146785954721  0.4745541850581603  0.3865373335271016
  0.0935767521403079  0.5724204434945506  0.3886824171284715
  0.0940763707251264  0.5730979413824642  0.4513153223523361
  0.1919348185853593  0.6432672474379615  0.4534595220947253
  0.0021745070397401  0.7424625756913912  0.3852031790220707
  0.0822719651432706  0.8274272151882016  0.3844425171423964
  0.0933853466781400  0.8216260342775499  0.4542304893577764
  0.1685784974272977  0.9110051591148007  0.4543027974243614
  0.2422681939907321  0.0035961171391747  0.3834630406679338
  0.2970988373631158  0.1106190929501807  0.3849652090622655
  0.3308638749572808  0.0797853292961435  0.4499542107483236
  0.4111451587124719  0.1610834990771508  0.4451559619224525
  0.3514157507236533  0.3513526118165160  0.4077860638882385
  0.3151896726522949  0.3152112931337285  0.4322140655613325
  0.2554603004585374  0.5054805949155394  0.3948438669221446
  0.3357419607473489  0.5867783768276595  0.3900462716857405
  0.3695065675670506  0.5559445203846991  0.4550355568647433
  0.4243375927520177  0.6629678725855541  0.4565377825678425
  0.2495161164601498  0.7512840818992217  0.3853500285340417
  0.3309768671828337  0.8359283151419632  0.3844598619347153
  0.3356291950132899  0.8306353188905504  0.4555409123177157
  0.4170898749392080  0.9152795156456222  0.4546498397455849
  0.4746707868309699  0.0232966183965857  0.3865403542781323
  0.5725289807043836  0.0934665194289224  0.3886837387644633
  0.5730296916605084  0.0941429327826029  0.4513165384121862
  0.6431911286741396  0.1920094598831241  0.4534626515278859
  0.5055748638641617  0.2553626334758121  0.3948450775750274
  0.5868821893469516  0.3356322055781291  0.3900432622824894
  0.5558676655160468  0.3695834250813377  0.4550388024090566
  0.6628900438104992  0.4244148545394282  0.4565441058600896
  0.5046628029532485  0.5045517635617145  0.3901546561730811
  0.5858796131111035  0.5857641368902051  0.3870364052754667
  0.5903864458105090  0.5904678036412037  0.4571902299910207
  0.6711585341900062  0.6712344303725217  0.4566745431660095
  0.4980271384829464  0.7555587800335601  0.3856983314919731
  0.5732205548570732  0.8449379330778015  0.3857696733192526
  0.5843341175426175  0.8391364271074906  0.4555556938537038
  0.6644316091528566  0.9241003076641547  0.4547945865875818
  0.7425758360201229  0.0020593658833263  0.3852022740344268
  0.8275430851107259  0.0821531792552648  0.3844379332719186
  0.8215489050125342  0.0934627275874504  0.4542336338875401
  0.9109286423318110  0.1686553336248267  0.4543084432976343
  0.7513944806600819  0.2494006988387838  0.3853425127105652
  0.8360447161103792  0.3308568151597129  0.3844510247185084
  0.8305612260308806  0.3357070710501802  0.4555503312920237
  0.9152113688512813  0.4171632186741050  0.4546579174521526
  0.7556773062352704  0.4979083530028987  0.3856930310861912
  0.8450570891066818  0.5731011535026411  0.3857666880186912
  0.8390627148674454  0.5844107782827024  0.4555606306207878
  0.9240290569880685  0.6645048139639300  0.4547956548845988
  0.7496889427944780  0.7495705233895862  0.3857686574598773
  0.8312799868883403  0.8311632581888659  0.3846850571157887
  0.8353257647405314  0.8354005526479682  0.4553125930422937
  0.9169168832262571  0.9169933404999782  0.4542305891939336
 
  0.00000000E+00  0.00000000E+00  0.00000000E+00
  0.00000000E+00  0.00000000E+00  0.00000000E+00
  0.00000000E+00  0.00000000E+00  0.00000000E+00
  0.00000000E+00  0.00000000E+00  0.00000000E+00
  0.00000000E+00  0.00000000E+00  0.00000000E+00
  0.00000000E+00  0.00000000E+00  0.00000000E+00
  0.00000000E+00  0.00000000E+00  0.00000000E+00
  0.00000000E+00  0.00000000E+00  0.00000000E+00
  0.00000000E+00  0.00000000E+00  0.00000000E+00
  0.00000000E+00  0.00000000E+00  0.00000000E+00
  0.00000000E+00  0.00000000E+00  0.00000000E+00
  0.00000000E+00  0.00000000E+00  0.00000000E+00
  0.00000000E+00  0.00000000E+00  0.00000000E+00
  0.00000000E+00  0.00000000E+00  0.00000000E+00
  0.00000000E+00  0.00000000E+00  0.00000000E+00
  0.00000000E+00  0.00000000E+00  0.00000000E+00
  0.00000000E+00  0.00000000E+00  0.00000000E+00
  0.00000000E+00  0.00000000E+00  0.00000000E+00
  0.00000000E+00  0.00000000E+00  0.00000000E+00
  0.00000000E+00  0.00000000E+00  0.00000000E+00
  0.00000000E+00  0.00000000E+00  0.00000000E+00
  0.00000000E+00  0.00000000E+00  0.00000000E+00
  0.00000000E+00  0.00000000E+00  0.00000000E+00
  0.00000000E+00  0.00000000E+00  0.00000000E+00
  0.00000000E+00  0.00000000E+00  0.00000000E+00
  0.00000000E+00  0.00000000E+00  0.00000000E+00
  0.00000000E+00  0.00000000E+00  0.00000000E+00
  0.00000000E+00  0.00000000E+00  0.00000000E+00
  0.00000000E+00  0.00000000E+00  0.00000000E+00
  0.00000000E+00  0.00000000E+00  0.00000000E+00
  0.00000000E+00  0.00000000E+00  0.00000000E+00
  0.00000000E+00  0.00000000E+00  0.00000000E+00
  0.00000000E+00  0.00000000E+00  0.00000000E+00
  0.00000000E+00  0.00000000E+00  0.00000000E+00
  0.00000000E+00  0.00000000E+00  0.00000000E+00
  0.00000000E+00  0.00000000E+00  0.00000000E+00
  0.00000000E+00  0.00000000E+00  0.00000000E+00
  0.00000000E+00  0.00000000E+00  0.00000000E+00
  0.00000000E+00  0.00000000E+00  0.00000000E+00
  0.00000000E+00  0.00000000E+00  0.00000000E+00
  0.00000000E+00  0.00000000E+00  0.00000000E+00
  0.00000000E+00  0.00000000E+00  0.00000000E+00
  0.00000000E+00  0.00000000E+00  0.00000000E+00
  0.00000000E+00  0.00000000E+00  0.00000000E+00
  0.00000000E+00  0.00000000E+00  0.00000000E+00
  0.00000000E+00  0.00000000E+00  0.00000000E+00
  0.00000000E+00  0.00000000E+00  0.00000000E+00
  0.00000000E+00  0.00000000E+00  0.00000000E+00
  0.00000000E+00  0.00000000E+00  0.00000000E+00
  0.00000000E+00  0.00000000E+00  0.00000000E+00
  0.00000000E+00  0.00000000E+00  0.00000000E+00
  0.00000000E+00  0.00000000E+00  0.00000000E+00
  0.00000000E+00  0.00000000E+00  0.00000000E+00
  0.00000000E+00  0.00000000E+00  0.00000000E+00
  0.00000000E+00  0.00000000E+00  0.00000000E+00
  0.00000000E+00  0.00000000E+00  0.00000000E+00
  0.00000000E+00  0.00000000E+00  0.00000000E+00
  0.00000000E+00  0.00000000E+00  0.00000000E+00
  0.00000000E+00  0.00000000E+00  0.00000000E+00
  0.00000000E+00  0.00000000E+00  0.00000000E+00
  0.00000000E+00  0.00000000E+00  0.00000000E+00
  0.00000000E+00  0.00000000E+00  0.00000000E+00
