POSCAR file written by OVITO Basic 3.7.8
   1.00000000000000     
     9.8543238353599936   -0.0049934660968730    0.0000004386183517
     4.9294820915979498    8.5313090074506643    0.0000005194503395
     0.0000022235787635    0.0000017560451074   49.9812277893734915
   C 
    32
Direct
  0.9999113708886611  0.9999015177109740  0.4679999999965432
  0.0833002138867442  0.0832260228101660  0.4680000000000035
  0.9999113727272402  0.2499015176415327  0.4679999999950937
  0.0833002134238328  0.3332260252579999  0.4679999999957403
  0.9999113718998487  0.4999015216419096  0.4679999999841939
  0.0833002148433977  0.5832260250860699  0.4680000000241975
  0.9999113707648561  0.7499015218147775  0.4680000000387139
  0.0833002163245666  0.8332260237240376  0.4680000000237783
  0.2499113731959355  0.9999015183374880  0.4679999999923439
  0.3333002162927201  0.0832260228405630  0.4680000000041247
  0.2499113742922958  0.2499015182818241  0.4679999999729816
  0.3333002163159335  0.3332260246091181  0.4679999999860769
  0.2499113734554257  0.4999015202038848  0.4679999999870432
  0.3333002161599126  0.5832260247637748  0.4680000000037978
  0.2499113719235666  0.7499015190523863  0.4679999999949658
  0.3333002158949938  0.8332260215154861  0.4679999999906315
  0.4999113772677930  0.9999015174271761  0.4679999999992219
  0.5833002164868617  0.0832260247092336  0.4680000000247730
  0.4999113752003268  0.2499015173224279  0.4679999999660680
  0.5833002163985768  0.3332260245448921  0.4679999999851461
  0.4999113733562695  0.4999015188768681  0.4679999999716529
  0.5833002153314126  0.5832260233098978  0.4679999999978648
  0.4999113743657944  0.7499015185426217  0.4679999999711910
  0.5833002156556546  0.8332260217784295  0.4679999999981490
  0.7499113746519868  0.9999015171595644  0.4680000000498623
  0.8333002145815982  0.0832260250608599  0.4680000000113580
  0.7499113736592307  0.2499015167304890  0.4679999999733582
  0.8333002133768588  0.3332260250355148  0.4680000000075424
  0.7499113719549371  0.4999015198365342  0.4679999999768967
  0.8333002139880321  0.5832260238071854  0.4680000000010480
  0.7499113733160954  0.7499015216668710  0.4680000000010835
  0.8333002155770828  0.8332260237632312  0.4680000000746602
 
  0.00000000E+00  0.00000000E+00  0.00000000E+00
  0.00000000E+00  0.00000000E+00  0.00000000E+00
  0.00000000E+00  0.00000000E+00  0.00000000E+00
  0.00000000E+00  0.00000000E+00  0.00000000E+00
  0.00000000E+00  0.00000000E+00  0.00000000E+00
  0.00000000E+00  0.00000000E+00  0.00000000E+00
  0.00000000E+00  0.00000000E+00  0.00000000E+00
  0.00000000E+00  0.00000000E+00  0.00000000E+00
  0.00000000E+00  0.00000000E+00  0.00000000E+00
  0.00000000E+00  0.00000000E+00  0.00000000E+00
  0.00000000E+00  0.00000000E+00  0.00000000E+00
  0.00000000E+00  0.00000000E+00  0.00000000E+00
  0.00000000E+00  0.00000000E+00  0.00000000E+00
  0.00000000E+00  0.00000000E+00  0.00000000E+00
  0.00000000E+00  0.00000000E+00  0.00000000E+00
  0.00000000E+00  0.00000000E+00  0.00000000E+00
  0.00000000E+00  0.00000000E+00  0.00000000E+00
  0.00000000E+00  0.00000000E+00  0.00000000E+00
  0.00000000E+00  0.00000000E+00  0.00000000E+00
  0.00000000E+00  0.00000000E+00  0.00000000E+00
  0.00000000E+00  0.00000000E+00  0.00000000E+00
  0.00000000E+00  0.00000000E+00  0.00000000E+00
  0.00000000E+00  0.00000000E+00  0.00000000E+00
  0.00000000E+00  0.00000000E+00  0.00000000E+00
  0.00000000E+00  0.00000000E+00  0.00000000E+00
  0.00000000E+00  0.00000000E+00  0.00000000E+00
  0.00000000E+00  0.00000000E+00  0.00000000E+00
  0.00000000E+00  0.00000000E+00  0.00000000E+00
  0.00000000E+00  0.00000000E+00  0.00000000E+00
  0.00000000E+00  0.00000000E+00  0.00000000E+00
  0.00000000E+00  0.00000000E+00  0.00000000E+00
  0.00000000E+00  0.00000000E+00  0.00000000E+00
