POSCAR file written by OVITO Basic 3.7.8
   1.00000000000000     
     9.8543238353599936   -0.0049934660968730    0.0000004386183517
     4.9294820915979498    8.5313090074506643    0.0000005194503395
     0.0000022235787635    0.0000017560451074   49.9812277893734915
   C 
    32
Direct
  0.9999113708886627  0.9999015177109725  0.4679999999965462
  0.0833002138867412  0.0832260228101630  0.4680000000000044
  0.9999113727272407  0.2499015176415321  0.4679999999950959
  0.0833002134238342  0.3332260252579967  0.4679999999957435
  0.9999113718998479  0.4999015216419099  0.4679999999841948
  0.0833002148433959  0.5832260250860665  0.4680000000242009
  0.9999113707648549  0.7499015218147767  0.4680000000387152
  0.0833002163245636  0.8332260237240410  0.4680000000237811
  0.2499113731959361  0.9999015183374845  0.4679999999923412
  0.3333002162927229  0.0832260228405599  0.4680000000041216
  0.2499113742922946  0.2499015182818274  0.4679999999729819
  0.3333002163159309  0.3332260246091154  0.4679999999860783
  0.2499113734554259  0.4999015202038863  0.4679999999870437
  0.3333002161599160  0.5832260247637764  0.4680000000037993
  0.2499113719235653  0.7499015190523871  0.4679999999949686
  0.3333002158949915  0.8332260215154882  0.4679999999906283
  0.4999113772677937  0.9999015174271738  0.4679999999992191
  0.5833002164868608  0.0832260247092354  0.4680000000247710
  0.4999113752003245  0.2499015173224263  0.4679999999660689
  0.5833002163985763  0.3332260245448909  0.4679999999851460
  0.4999113733562671  0.4999015188768713  0.4679999999716499
  0.5833002153314100  0.5832260233098945  0.4679999999978665
  0.4999113743657970  0.7499015185426219  0.4679999999711877
  0.5833002156556577  0.8332260217784281  0.4679999999981465
  0.7499113746519882  0.9999015171595667  0.4680000000498658
  0.8333002145816009  0.0832260250608574  0.4680000000113579
  0.7499113736592318  0.2499015167304915  0.4679999999733600
  0.8333002133768569  0.3332260250355117  0.4680000000075453
  0.7499113719549354  0.4999015198365309  0.4679999999768970
  0.8333002139880331  0.5832260238071842  0.4680000000010468
  0.7499113733160933  0.7499015216668684  0.4680000000010817
  0.8333002155770843  0.8332260237632318  0.4680000000746576
 
  0.00000000E+00  0.00000000E+00  0.00000000E+00
  0.00000000E+00  0.00000000E+00  0.00000000E+00
  0.00000000E+00  0.00000000E+00  0.00000000E+00
  0.00000000E+00  0.00000000E+00  0.00000000E+00
  0.00000000E+00  0.00000000E+00  0.00000000E+00
  0.00000000E+00  0.00000000E+00  0.00000000E+00
  0.00000000E+00  0.00000000E+00  0.00000000E+00
  0.00000000E+00  0.00000000E+00  0.00000000E+00
  0.00000000E+00  0.00000000E+00  0.00000000E+00
  0.00000000E+00  0.00000000E+00  0.00000000E+00
  0.00000000E+00  0.00000000E+00  0.00000000E+00
  0.00000000E+00  0.00000000E+00  0.00000000E+00
  0.00000000E+00  0.00000000E+00  0.00000000E+00
  0.00000000E+00  0.00000000E+00  0.00000000E+00
  0.00000000E+00  0.00000000E+00  0.00000000E+00
  0.00000000E+00  0.00000000E+00  0.00000000E+00
  0.00000000E+00  0.00000000E+00  0.00000000E+00
  0.00000000E+00  0.00000000E+00  0.00000000E+00
  0.00000000E+00  0.00000000E+00  0.00000000E+00
  0.00000000E+00  0.00000000E+00  0.00000000E+00
  0.00000000E+00  0.00000000E+00  0.00000000E+00
  0.00000000E+00  0.00000000E+00  0.00000000E+00
  0.00000000E+00  0.00000000E+00  0.00000000E+00
  0.00000000E+00  0.00000000E+00  0.00000000E+00
  0.00000000E+00  0.00000000E+00  0.00000000E+00
  0.00000000E+00  0.00000000E+00  0.00000000E+00
  0.00000000E+00  0.00000000E+00  0.00000000E+00
  0.00000000E+00  0.00000000E+00  0.00000000E+00
  0.00000000E+00  0.00000000E+00  0.00000000E+00
  0.00000000E+00  0.00000000E+00  0.00000000E+00
  0.00000000E+00  0.00000000E+00  0.00000000E+00
  0.00000000E+00  0.00000000E+00  0.00000000E+00
