POSCAR file written by OVITO Basic 3.7.8
   1.00000000000000     
     9.8467199999999995    0.0000000000000000    0.0000000000000000
     4.9299999999999997    8.5284800000000001    0.0000000000000000
     0.0000000000000000    0.0000000000000000   50.0000000000000000
   C 
    32
Direct
  0.9999476951840255  0.9998958309923118  0.4680000000692870
  0.0832638934534802  0.0832317122569826  0.4679999999257066
  0.9999476953894649  0.2498958305662014  0.4680000000704864
  0.0832638932520682  0.3332317117853415  0.4679999999374291
  0.9999476951175107  0.4998958300894427  0.4680000000702298
  0.0832638932400264  0.5832317119207635  0.4679999999335481
  0.9999476950933296  0.7498958307836673  0.4680000000756076
  0.0832638934242272  0.8332317123058319  0.4679999999266427
  0.2499476951496289  0.9998958310123900  0.4680000000681479
  0.3332638933708014  0.0832317121322149  0.4679999999250733
  0.2499476950205599  0.2498958303962515  0.4680000000704623
  0.3332638934208973  0.3332317116537195  0.4679999999342433
  0.2499476951946402  0.4998958307096834  0.4680000000682544
  0.3332638933694157  0.5832317123818952  0.4679999999298762
  0.2499476953000146  0.7498958308792495  0.4680000000766901
  0.3332638933434623  0.8332317123106019  0.4679999999260153
  0.4999476952699389  0.9998958306826752  0.4680000000682338
  0.5832638934864901  0.0832317117832274  0.4679999999239719
  0.4999476955998615  0.2498958301840943  0.4680000000634834
  0.5832638937385330  0.3332317117190716  0.4679999999185473
  0.4999476953710584  0.4998958306907394  0.4680000000539987
  0.5832638933609148  0.5832317122983430  0.4679999999244175
  0.4999476951117942  0.7498958309802327  0.4680000000714601
  0.5832638932579242  0.8332317126451559  0.4679999999330335
  0.7499476948649763  0.9998958309566235  0.4680000000730983
  0.8332638932064101  0.0832317121431192  0.4679999999189589
  0.7499476954561841  0.2498958304835704  0.4680000000636521
  0.8332638938555370  0.3332317120577262  0.4679999999362612
  0.7499476954972545  0.4998958305074502  0.4680000000764502
  0.8332638933604203  0.5832317119008174  0.4679999999444504
  0.7499476948794150  0.7498958310376060  0.4680000000797199
  0.8332638928181838  0.8332317126167736  0.4679999999426757
 
  0.00000000E+00  0.00000000E+00  0.00000000E+00
  0.00000000E+00  0.00000000E+00  0.00000000E+00
  0.00000000E+00  0.00000000E+00  0.00000000E+00
  0.00000000E+00  0.00000000E+00  0.00000000E+00
  0.00000000E+00  0.00000000E+00  0.00000000E+00
  0.00000000E+00  0.00000000E+00  0.00000000E+00
  0.00000000E+00  0.00000000E+00  0.00000000E+00
  0.00000000E+00  0.00000000E+00  0.00000000E+00
  0.00000000E+00  0.00000000E+00  0.00000000E+00
  0.00000000E+00  0.00000000E+00  0.00000000E+00
  0.00000000E+00  0.00000000E+00  0.00000000E+00
  0.00000000E+00  0.00000000E+00  0.00000000E+00
  0.00000000E+00  0.00000000E+00  0.00000000E+00
  0.00000000E+00  0.00000000E+00  0.00000000E+00
  0.00000000E+00  0.00000000E+00  0.00000000E+00
  0.00000000E+00  0.00000000E+00  0.00000000E+00
  0.00000000E+00  0.00000000E+00  0.00000000E+00
  0.00000000E+00  0.00000000E+00  0.00000000E+00
  0.00000000E+00  0.00000000E+00  0.00000000E+00
  0.00000000E+00  0.00000000E+00  0.00000000E+00
  0.00000000E+00  0.00000000E+00  0.00000000E+00
  0.00000000E+00  0.00000000E+00  0.00000000E+00
  0.00000000E+00  0.00000000E+00  0.00000000E+00
  0.00000000E+00  0.00000000E+00  0.00000000E+00
  0.00000000E+00  0.00000000E+00  0.00000000E+00
  0.00000000E+00  0.00000000E+00  0.00000000E+00
  0.00000000E+00  0.00000000E+00  0.00000000E+00
  0.00000000E+00  0.00000000E+00  0.00000000E+00
  0.00000000E+00  0.00000000E+00  0.00000000E+00
  0.00000000E+00  0.00000000E+00  0.00000000E+00
  0.00000000E+00  0.00000000E+00  0.00000000E+00
  0.00000000E+00  0.00000000E+00  0.00000000E+00
