POSCAR file written by OVITO Basic 3.7.1
   1.00000000000000     
     9.8467199999999995    0.0000000000000000    0.0000000000000000
     4.9299999999999997    8.5284800000000001    0.0000000000000000
     0.0000000000000000    0.0000000000000000   50.0000000000000000
   C 
    62
Direct
  0.0004203389641094  0.0003594542691344  0.4574958437482838
  0.0833985126803843  0.0834025770776852  0.4562753131682294
  0.0004255542016908  0.0003659599578283  0.3825092621957736
  0.0833967286419649  0.0834030878602082  0.3837332035726572
  0.9986687395306897  0.2505457668686452  0.4553620256959265
  0.0834151994660229  0.3328995939114396  0.4562658489497594
  0.9986755979673090  0.2505448499407305  0.3846443374881043
  0.0834129455084531  0.3329088107151502  0.3837421411253388
  0.0004129240716189  0.4989643074526686  0.4574813489759044
  0.0840821348412926  0.5827911909985259  0.4559151128797905
  0.0004198968054577  0.4989581917568879  0.3825224321863657
  0.0840859496124272  0.5827979500084379  0.3840835831829365
  0.9999796742478493  0.7498891083802485  0.4572127892537814
  0.0840965179852686  0.8328293338429115  0.4559251007571672
 -0.0000153182945642  0.7498879827070862  0.3827843698694954
  0.0841023441782487  0.8328288539999786  0.3840745527921319
  0.2505602310655167  0.9986754817060860  0.4553445976487069
  0.3329129466008394  0.0834086537277596  0.4562479354231462
  0.2505578048536195  0.9986825689708599  0.3846614149342043
  0.3329224790392848  0.0834077197449068  0.3837596514079538
  0.2505379508279884  0.2505035541110718  0.4553385606078497
  0.3337832882996759  0.3337238969365509  0.4497050809450873
  0.2505335165584043  0.2505036231577685  0.3846674220548429
  0.3337895942062070  0.3337304946831193  0.3902939257558758
  0.2455047567348211  0.5012844916830962  0.4480475590361482
  0.2923063380965898  0.6036995902804251  0.4343192623625901
  0.2455089936402089  0.5012850838821723  0.3919483932120644
  0.2923188727408004  0.6036950625151832  0.4056772312241552
  0.2455333142566930  0.7529122554676606  0.4480551807290782
  0.3338065876151076  0.8321690866532161  0.4497104420102649
  0.2455399007714184  0.7529131791471783  0.3919412851216695
  0.3338159068321613  0.8321625494247419  0.3902886473392740
  0.4990076146280493  0.0003610184915816  0.4574594904460825
  0.5828420942585996  0.0839790195673848  0.4558950930741538
  0.4989974760262023  0.0003698278971472  0.3825435025275258
  0.5828463261430545  0.0839852345931207  0.3841027209954426
  0.5013446220071830  0.2453613474929979  0.4480409465682713
  0.6037654367059455  0.2921669259049207  0.4343152119424067
  0.5013437593236262  0.2453664810022124  0.3919553922515333
  0.6037617939080344  0.2921788662612855  0.4056820772290160
  0.6038037818270501  0.6038097328535936  0.4343162719073602
  0.6038027324906331  0.6038113740616750  0.4056809893543010
  0.5013660695936939  0.7530188673070860  0.4480438193121358
  0.5828469475217325  0.8329164141107238  0.4558916562249057
  0.5013692944591763  0.7530228969546119  0.3919530901279393
  0.5828520687997131  0.8329190030026484  0.3841063704218227
  0.7499657355446558  0.9998769921326207  0.4571980939403993
  0.8328739275752813  0.0840225116308054  0.4559227650881034
  0.7499647723691002  0.9998817078518284  0.3827981618983265
  0.8328707751389040  0.0840318067659064  0.3840767608850837
  0.7529464676817457  0.2454638542245433  0.4480654857689763
  0.8321259011977231  0.3337995802722610  0.4497303436014011
  0.7529462387961312  0.2454701857871125  0.3919316833470039
  0.8321167078253082  0.3338109350100582  0.3902698477784745
  0.7529704460746304  0.5013405678989821  0.4480606385095140
  0.8329100965412986  0.5828239205322906  0.4559090012323612
  0.7529751638910399  0.5013443434773139  0.3919367513463438
  0.8329091679080912  0.5828317381243496  0.3840898279560258
  0.7499522708285937  0.7499016404206779  0.4571876526826661
  0.8333042313455491  0.8332381293890965  0.4584099225169326
  0.7499542400098056  0.7499038714161070  0.3828083596485554
  0.8333070696014635  0.8332469497730060  0.3815842157622422
 
  0.00000000E+00  0.00000000E+00  0.00000000E+00
  0.00000000E+00  0.00000000E+00  0.00000000E+00
  0.00000000E+00  0.00000000E+00  0.00000000E+00
  0.00000000E+00  0.00000000E+00  0.00000000E+00
  0.00000000E+00  0.00000000E+00  0.00000000E+00
  0.00000000E+00  0.00000000E+00  0.00000000E+00
  0.00000000E+00  0.00000000E+00  0.00000000E+00
  0.00000000E+00  0.00000000E+00  0.00000000E+00
  0.00000000E+00  0.00000000E+00  0.00000000E+00
  0.00000000E+00  0.00000000E+00  0.00000000E+00
  0.00000000E+00  0.00000000E+00  0.00000000E+00
  0.00000000E+00  0.00000000E+00  0.00000000E+00
  0.00000000E+00  0.00000000E+00  0.00000000E+00
  0.00000000E+00  0.00000000E+00  0.00000000E+00
  0.00000000E+00  0.00000000E+00  0.00000000E+00
  0.00000000E+00  0.00000000E+00  0.00000000E+00
  0.00000000E+00  0.00000000E+00  0.00000000E+00
  0.00000000E+00  0.00000000E+00  0.00000000E+00
  0.00000000E+00  0.00000000E+00  0.00000000E+00
  0.00000000E+00  0.00000000E+00  0.00000000E+00
  0.00000000E+00  0.00000000E+00  0.00000000E+00
  0.00000000E+00  0.00000000E+00  0.00000000E+00
  0.00000000E+00  0.00000000E+00  0.00000000E+00
  0.00000000E+00  0.00000000E+00  0.00000000E+00
  0.00000000E+00  0.00000000E+00  0.00000000E+00
  0.00000000E+00  0.00000000E+00  0.00000000E+00
  0.00000000E+00  0.00000000E+00  0.00000000E+00
  0.00000000E+00  0.00000000E+00  0.00000000E+00
  0.00000000E+00  0.00000000E+00  0.00000000E+00
  0.00000000E+00  0.00000000E+00  0.00000000E+00
  0.00000000E+00  0.00000000E+00  0.00000000E+00
  0.00000000E+00  0.00000000E+00  0.00000000E+00
  0.00000000E+00  0.00000000E+00  0.00000000E+00
  0.00000000E+00  0.00000000E+00  0.00000000E+00
  0.00000000E+00  0.00000000E+00  0.00000000E+00
  0.00000000E+00  0.00000000E+00  0.00000000E+00
  0.00000000E+00  0.00000000E+00  0.00000000E+00
  0.00000000E+00  0.00000000E+00  0.00000000E+00
  0.00000000E+00  0.00000000E+00  0.00000000E+00
  0.00000000E+00  0.00000000E+00  0.00000000E+00
  0.00000000E+00  0.00000000E+00  0.00000000E+00
  0.00000000E+00  0.00000000E+00  0.00000000E+00
  0.00000000E+00  0.00000000E+00  0.00000000E+00
  0.00000000E+00  0.00000000E+00  0.00000000E+00
  0.00000000E+00  0.00000000E+00  0.00000000E+00
  0.00000000E+00  0.00000000E+00  0.00000000E+00
  0.00000000E+00  0.00000000E+00  0.00000000E+00
  0.00000000E+00  0.00000000E+00  0.00000000E+00
  0.00000000E+00  0.00000000E+00  0.00000000E+00
  0.00000000E+00  0.00000000E+00  0.00000000E+00
  0.00000000E+00  0.00000000E+00  0.00000000E+00
  0.00000000E+00  0.00000000E+00  0.00000000E+00
  0.00000000E+00  0.00000000E+00  0.00000000E+00
  0.00000000E+00  0.00000000E+00  0.00000000E+00
  0.00000000E+00  0.00000000E+00  0.00000000E+00
  0.00000000E+00  0.00000000E+00  0.00000000E+00
  0.00000000E+00  0.00000000E+00  0.00000000E+00
  0.00000000E+00  0.00000000E+00  0.00000000E+00
  0.00000000E+00  0.00000000E+00  0.00000000E+00
  0.00000000E+00  0.00000000E+00  0.00000000E+00
  0.00000000E+00  0.00000000E+00  0.00000000E+00
  0.00000000E+00  0.00000000E+00  0.00000000E+00
