POSCAR file written by OVITO Basic 3.7.8
   1.00000000000000     
     9.8162067966556066    0.0070658291094118    0.0000095187194756
     4.9208422794081637    8.5132405691593682    0.0000172679722868
     0.0000478715482623    0.0000735984575209   49.9125783812476485
   C 
    31
Direct
  0.0003499930745363  0.0000419806266692  0.4399995259272842
  0.0829145026043605  0.0834400288556481  0.4399994762256156
  0.9994879384141768  0.2501632620144818  0.4399996301591145
  0.0829194120344354  0.3332579432188183  0.4400000477579553
  0.0003648807117571  0.4993523779803581  0.4400000869805538
  0.0845461798236542  0.5831623068894984  0.4400000009784364
  0.0008722888621620  0.7494148304368053  0.4400000751390394
  0.0845693834098995  0.8320067992093101  0.4400001061254599
  0.2497067273323523  0.0001748839870004  0.4400003070006022
  0.3330277977556122  0.0832972986633962  0.4400004184552131
  0.2496466526479963  0.2498710992160014  0.4400002027560035
  0.3321884470529000  0.3322107749268994  0.4399984861128843
  0.2546085635152551  0.4980795518786749  0.4399982992129807
  0.3332518361022068  0.5831172985923985  0.4399971529331239
  0.2547124268036214  0.7469088925582170  0.4399998384893991
  0.3322095041274551  0.8352381060978331  0.4400001577723955
  0.4993188497840819  0.0002267772254143  0.4399995377660701
  0.5834371492224335  0.0835213367584231  0.4400007268808821
  0.4982856355547867  0.2528543742707114  0.4400024659641986
  0.5834506084381914  0.3300152262451732  0.4400016711639481
  0.5837339499958816  0.5863050073169873  0.4400095224206027
  0.4983951014046255  0.7485810249640323  0.4399981090263552
  0.5834466922461488  0.8328173886406063  0.4399987346411507
  0.7498312504192484  0.0001826126631173  0.4399999313916965
  0.8322797880716735  0.0840021685097554  0.4399984390869065
  0.7469352780855445  0.2539970197828865  0.4399966454032409
  0.8341506708078938  0.3327592585797348  0.4400007653013489
  0.7470593410723581  0.4988872988747346  0.4399995707648969
  0.8323426429009189  0.5834630411579909  0.4399991264994370
  0.7498668666471460  0.7497215253293206  0.4400003509950423
  0.8335663670351465  0.8331235322928734  0.4400005906680988
 
  0.00000000E+00  0.00000000E+00  0.00000000E+00
  0.00000000E+00  0.00000000E+00  0.00000000E+00
  0.00000000E+00  0.00000000E+00  0.00000000E+00
  0.00000000E+00  0.00000000E+00  0.00000000E+00
  0.00000000E+00  0.00000000E+00  0.00000000E+00
  0.00000000E+00  0.00000000E+00  0.00000000E+00
  0.00000000E+00  0.00000000E+00  0.00000000E+00
  0.00000000E+00  0.00000000E+00  0.00000000E+00
  0.00000000E+00  0.00000000E+00  0.00000000E+00
  0.00000000E+00  0.00000000E+00  0.00000000E+00
  0.00000000E+00  0.00000000E+00  0.00000000E+00
  0.00000000E+00  0.00000000E+00  0.00000000E+00
  0.00000000E+00  0.00000000E+00  0.00000000E+00
  0.00000000E+00  0.00000000E+00  0.00000000E+00
  0.00000000E+00  0.00000000E+00  0.00000000E+00
  0.00000000E+00  0.00000000E+00  0.00000000E+00
  0.00000000E+00  0.00000000E+00  0.00000000E+00
  0.00000000E+00  0.00000000E+00  0.00000000E+00
  0.00000000E+00  0.00000000E+00  0.00000000E+00
  0.00000000E+00  0.00000000E+00  0.00000000E+00
  0.00000000E+00  0.00000000E+00  0.00000000E+00
  0.00000000E+00  0.00000000E+00  0.00000000E+00
  0.00000000E+00  0.00000000E+00  0.00000000E+00
  0.00000000E+00  0.00000000E+00  0.00000000E+00
  0.00000000E+00  0.00000000E+00  0.00000000E+00
  0.00000000E+00  0.00000000E+00  0.00000000E+00
  0.00000000E+00  0.00000000E+00  0.00000000E+00
  0.00000000E+00  0.00000000E+00  0.00000000E+00
  0.00000000E+00  0.00000000E+00  0.00000000E+00
  0.00000000E+00  0.00000000E+00  0.00000000E+00
  0.00000000E+00  0.00000000E+00  0.00000000E+00
