POSCAR file written by OVITO Basic 3.7.8
   1.00000000000000     
     9.8162067966556066    0.0070658291094118    0.0000095187194756
     4.9208422794081637    8.5132405691593682    0.0000172679722868
     0.0000478715482623    0.0000735984575209   49.9125783812476485
   C 
    31
Direct
  0.0003499930745372  0.0000419806266671  0.4399995259272847
  0.0829145026043636  0.0834400288556487  0.4399994762256173
 -0.0005120615858247  0.2501632620144827  0.4399996301591116
  0.0829194120344373  0.3332579432188185  0.4400000477579531
  0.0003648807117595  0.4993523779803548  0.4400000869805554
  0.0845461798236554  0.5831623068894995  0.4400000009784392
  1.0008722888621631  0.7494148304368077  0.4400000751390396
  0.0845693834098960  0.8320067992093125  0.4400001061254628
  0.2497067273323506  0.0001748839870002  0.4400003070006044
  0.3330277977556153  0.0832972986633983  0.4400004184552131
  0.2496466526479972  0.2498710992159989  0.4400002027560013
  0.3321884470529026  0.3322107749269017  0.4399984861128844
  0.2546085635152556  0.4980795518786724  0.4399982992129776
  0.3332518361022062  0.5831172985923960  0.4399971529331225
  0.2547124268036233  0.7469088925582137  0.4399998384893958
  0.3322095041274574  0.8352381060978322  0.4400001577723943
  0.4993188497840810  0.0002267772254154  0.4399995377660720
  0.5834371492224339  0.0835213367584230  0.4400007268808846
  0.4982856355547836  0.2528543742707107  0.4400024659641965
  0.5834506084381934  0.3300152262451738  0.4400016711639446
  0.5837339499958845  0.5863050073169902  0.4400095224206004
  0.4983951014046228  0.7485810249640349  0.4399981090263552
  0.5834466922461505  0.8328173886406054  0.4399987346411476
  0.7498312504192497  1.0001826126631153  0.4399999313916959
  0.8322797880716716  0.0840021685097585  0.4399984390869091
  0.7469352780855417  0.2539970197828832  0.4399966454032413
  0.8341506708078920  0.3327592585797327  0.4400007653013467
  0.7470593410723563  0.4988872988747367  0.4399995707648995
  0.8323426429009216  0.5834630411579881  0.4399991264994364
  0.7498668666471471  0.7497215253293177  0.4400003509950423
  0.8335663670351500  0.8331235322928742  0.4400005906681002
 
  0.00000000E+00  0.00000000E+00  0.00000000E+00
  0.00000000E+00  0.00000000E+00  0.00000000E+00
  0.00000000E+00  0.00000000E+00  0.00000000E+00
  0.00000000E+00  0.00000000E+00  0.00000000E+00
  0.00000000E+00  0.00000000E+00  0.00000000E+00
  0.00000000E+00  0.00000000E+00  0.00000000E+00
  0.00000000E+00  0.00000000E+00  0.00000000E+00
  0.00000000E+00  0.00000000E+00  0.00000000E+00
  0.00000000E+00  0.00000000E+00  0.00000000E+00
  0.00000000E+00  0.00000000E+00  0.00000000E+00
  0.00000000E+00  0.00000000E+00  0.00000000E+00
  0.00000000E+00  0.00000000E+00  0.00000000E+00
  0.00000000E+00  0.00000000E+00  0.00000000E+00
  0.00000000E+00  0.00000000E+00  0.00000000E+00
  0.00000000E+00  0.00000000E+00  0.00000000E+00
  0.00000000E+00  0.00000000E+00  0.00000000E+00
  0.00000000E+00  0.00000000E+00  0.00000000E+00
  0.00000000E+00  0.00000000E+00  0.00000000E+00
  0.00000000E+00  0.00000000E+00  0.00000000E+00
  0.00000000E+00  0.00000000E+00  0.00000000E+00
  0.00000000E+00  0.00000000E+00  0.00000000E+00
  0.00000000E+00  0.00000000E+00  0.00000000E+00
  0.00000000E+00  0.00000000E+00  0.00000000E+00
  0.00000000E+00  0.00000000E+00  0.00000000E+00
  0.00000000E+00  0.00000000E+00  0.00000000E+00
  0.00000000E+00  0.00000000E+00  0.00000000E+00
  0.00000000E+00  0.00000000E+00  0.00000000E+00
  0.00000000E+00  0.00000000E+00  0.00000000E+00
  0.00000000E+00  0.00000000E+00  0.00000000E+00
  0.00000000E+00  0.00000000E+00  0.00000000E+00
  0.00000000E+00  0.00000000E+00  0.00000000E+00
