POSCAR file written by OVITO Basic 3.7.1
   1.00000000000000     
     9.7779374457805766   -0.0402581755716796    0.0289755375062279
     4.8606912417723942    8.4855687336176917    0.0294192129019335
     0.1485969228663461    0.0883016208718143   49.7316569003733591
   C 
    62
Direct
  0.9948240279987522  0.9948538701361538  0.3852632540119139
  0.0780468193376239  0.0781623561469627  0.3859807873544547
  0.0892933745004017  0.0892639038401379  0.4540542426937748
  0.1734612502947403  0.1734187843761018  0.4542489131823586
  0.9945598496640388  0.2445180571269510  0.3864478352039107
  0.0788925288016122  0.3282287675091107  0.3866615231287656
  0.0902235062769538  0.3396781125707610  0.4537255706820364
  0.1763547123858299  0.4235988743270656  0.4513412598464895
  0.9944061970202198  0.4944793448897964  0.3865091423850782
  0.0791735729745543  0.5777325990269110  0.3883439077283390
  0.0878238526538633  0.5915330267524782  0.4505775572790189
  0.1684167321575152  0.6762226221407934  0.4472330544250173
  0.9935197866084363  0.7446610981146958  0.3871512598029649
  0.0772939296864912  0.8281725249002962  0.3872072004091968
  0.0884826417317781  0.8392585850569930  0.4527742028083404
  0.1719244117247014  0.9230931878902574  0.4528391659996729
  0.2444447670990551  0.9946682345597229  0.3864287444312976
  0.3281580000498197  0.0789770769343511  0.3866533205697223
  0.3397630318182044  0.0901029954705035  0.4537423259597840
  0.4236954747784425  0.1761790477709125  0.4513691068688095
  0.2459999410468927  0.2460348120236420  0.3880695207718730
  0.3291896052330182  0.3291864352296265  0.3935693173097396
  0.3405345707790504  0.3402921634919738  0.4503448956508869
  0.2428788944578182  0.4967231518159937  0.3950027983577006
  0.3088466437171200  0.5915470432311937  0.4048270094079296
  0.3250044627954005  0.6080379394361589  0.4351017779217555
  0.4198426135104992  0.6738309609294425  0.4449593620326575
  0.2403913087249480  0.7482349884207186  0.3927134137035473
  0.3249562932771919  0.8289269832194942  0.3893789003615119
  0.3388749109702317  0.8374393304427253  0.4516476373580892
  0.4221552549669930  0.9221314609801073  0.4535039140626947
  0.4944505896816822  0.9944310657664445  0.3864966202823401
  0.5777318379971595  0.0791245887878344  0.3883515952679818
  0.5916482358233262  0.0876379720028689  0.4506214536309384
  0.6762155455371632  0.1683281374776276  0.4472856422301464
  0.4967631491113930  0.2427332103821167  0.3950392077469808
  0.5916007376178649  0.3085265078855154  0.4048967540774112
  0.6077606746287025  0.3250157727559057  0.4351714629465169
  0.6737282495553421  0.4198401588362410  0.4449957378371812
  0.5760710703346794  0.5762706920431250  0.3896548023357475
  0.5874162482679326  0.5873778655258975  0.4464297311525731
  0.6706060658141471  0.6705280612999176  0.4519310999901117
  0.4929104318855643  0.7403847390323545  0.3886312499047481
  0.5768435363925120  0.8264606107697454  0.3862585732518655
  0.5884464744349081  0.8375876338874000  0.4533479648244705
  0.6721622618263927  0.9218947429279962  0.4535729282333455
  0.7446801074753164  0.9934705470459086  0.3871599575943594
  0.8281241644785328  0.0773051465696322  0.3872248377444881
  0.8393117408548911  0.0883921010336173  0.4527918874233450
  0.9230853454115244  0.1719025327998853  0.4528478927426467
  0.7481880328593876  0.2403417181775484  0.3927659723656567
  0.8287829081986423  0.3250298779663497  0.3894228810393496
  0.8374327365209226  0.3388311814289788  0.4516553975124055
  0.9221982423353985  0.4220849441921971  0.4534916041811204
  0.7402493988611287  0.4929661914064457  0.3886592511492910
  0.8263834146517428  0.5768845532203402  0.3862755175807171
  0.8377130625139585  0.5883345277286618  0.4533399109397766
  0.9220455294000639  0.6720462349232484  0.4535539438126575
  0.7431427674690945  0.7431457311680505  0.3857519046984092
  0.8273142479217053  0.8272998256371492  0.3859456398211508
  0.8385579437394586  0.8384019318362433  0.4540208376151268
  0.9217819049593867  0.9217097704516849  0.4547368183577010
 
  0.00000000E+00  0.00000000E+00  0.00000000E+00
  0.00000000E+00  0.00000000E+00  0.00000000E+00
  0.00000000E+00  0.00000000E+00  0.00000000E+00
  0.00000000E+00  0.00000000E+00  0.00000000E+00
  0.00000000E+00  0.00000000E+00  0.00000000E+00
  0.00000000E+00  0.00000000E+00  0.00000000E+00
  0.00000000E+00  0.00000000E+00  0.00000000E+00
  0.00000000E+00  0.00000000E+00  0.00000000E+00
  0.00000000E+00  0.00000000E+00  0.00000000E+00
  0.00000000E+00  0.00000000E+00  0.00000000E+00
  0.00000000E+00  0.00000000E+00  0.00000000E+00
  0.00000000E+00  0.00000000E+00  0.00000000E+00
  0.00000000E+00  0.00000000E+00  0.00000000E+00
  0.00000000E+00  0.00000000E+00  0.00000000E+00
  0.00000000E+00  0.00000000E+00  0.00000000E+00
  0.00000000E+00  0.00000000E+00  0.00000000E+00
  0.00000000E+00  0.00000000E+00  0.00000000E+00
  0.00000000E+00  0.00000000E+00  0.00000000E+00
  0.00000000E+00  0.00000000E+00  0.00000000E+00
  0.00000000E+00  0.00000000E+00  0.00000000E+00
  0.00000000E+00  0.00000000E+00  0.00000000E+00
  0.00000000E+00  0.00000000E+00  0.00000000E+00
  0.00000000E+00  0.00000000E+00  0.00000000E+00
  0.00000000E+00  0.00000000E+00  0.00000000E+00
  0.00000000E+00  0.00000000E+00  0.00000000E+00
  0.00000000E+00  0.00000000E+00  0.00000000E+00
  0.00000000E+00  0.00000000E+00  0.00000000E+00
  0.00000000E+00  0.00000000E+00  0.00000000E+00
  0.00000000E+00  0.00000000E+00  0.00000000E+00
  0.00000000E+00  0.00000000E+00  0.00000000E+00
  0.00000000E+00  0.00000000E+00  0.00000000E+00
  0.00000000E+00  0.00000000E+00  0.00000000E+00
  0.00000000E+00  0.00000000E+00  0.00000000E+00
  0.00000000E+00  0.00000000E+00  0.00000000E+00
  0.00000000E+00  0.00000000E+00  0.00000000E+00
  0.00000000E+00  0.00000000E+00  0.00000000E+00
  0.00000000E+00  0.00000000E+00  0.00000000E+00
  0.00000000E+00  0.00000000E+00  0.00000000E+00
  0.00000000E+00  0.00000000E+00  0.00000000E+00
  0.00000000E+00  0.00000000E+00  0.00000000E+00
  0.00000000E+00  0.00000000E+00  0.00000000E+00
  0.00000000E+00  0.00000000E+00  0.00000000E+00
  0.00000000E+00  0.00000000E+00  0.00000000E+00
  0.00000000E+00  0.00000000E+00  0.00000000E+00
  0.00000000E+00  0.00000000E+00  0.00000000E+00
  0.00000000E+00  0.00000000E+00  0.00000000E+00
  0.00000000E+00  0.00000000E+00  0.00000000E+00
  0.00000000E+00  0.00000000E+00  0.00000000E+00
  0.00000000E+00  0.00000000E+00  0.00000000E+00
  0.00000000E+00  0.00000000E+00  0.00000000E+00
  0.00000000E+00  0.00000000E+00  0.00000000E+00
  0.00000000E+00  0.00000000E+00  0.00000000E+00
  0.00000000E+00  0.00000000E+00  0.00000000E+00
  0.00000000E+00  0.00000000E+00  0.00000000E+00
  0.00000000E+00  0.00000000E+00  0.00000000E+00
  0.00000000E+00  0.00000000E+00  0.00000000E+00
  0.00000000E+00  0.00000000E+00  0.00000000E+00
  0.00000000E+00  0.00000000E+00  0.00000000E+00
  0.00000000E+00  0.00000000E+00  0.00000000E+00
  0.00000000E+00  0.00000000E+00  0.00000000E+00
  0.00000000E+00  0.00000000E+00  0.00000000E+00
  0.00000000E+00  0.00000000E+00  0.00000000E+00
