POSCAR file written by OVITO Basic 3.7.1
   1.00000000000000     
     9.8467199999999995    0.0000000000000000    0.0000000000000000
     4.9299999999999997    8.5284800000000001    0.0000000000000000
     0.0000000000000000    0.0000000000000000   50.0000000000000000
   C 
    62
Direct
  0.9948226672088379  0.9948689843396340  0.3851445542473783
  0.0779159736958357  0.0780512162723105  0.3859411937109455
  0.0890542840974765  0.0890577566057804  0.4541506025703375
  0.1731471552310100  0.1730979563875075  0.4542984722038034
  0.9944306047122040  0.2445425053893117  0.3864641571646542
  0.0786884330446034  0.3281440319325208  0.3867118455103255
  0.0897009539630245  0.3393887073778596  0.4537792869422841
  0.1753358166361987  0.4231275432740262  0.4514369475049263
  0.9947151459470359  0.4944066513518723  0.3865054700498829
  0.0790850281500280  0.5777114764338160  0.3883460789966228
  0.0879240072892787  0.5912807817600145  0.4506377635309498
  0.1686653161259914  0.6756605441654299  0.4473361029482875
  0.9938028204699820  0.7446525240088770  0.3870250719882654
  0.0775656196254561  0.8279952649272904  0.3870534163010115
  0.0886648944536130  0.8390013307255189  0.4529324261288748
  0.1719240956456061  0.9228390114911071  0.4529647757749338
  0.2444241347204640  0.9945944401662751  0.3864487951603712
  0.3280650858394075  0.0787836384782936  0.3867086279327857
  0.3394721522575284  0.0895668397918387  0.4537948949107135
  0.4232547743662816  0.1750895466612497  0.4514663179139464
  0.2458156041434572  0.2458685312591206  0.3881602006353983
  0.3290179397689937  0.3289976873647180  0.3936430556022856
  0.3388380942083191  0.3384974224011013  0.4504995100695082
  0.2424770153029616  0.4967139834165979  0.3950759908861096
  0.3079440099404313  0.5920070375940903  0.4048676150402157
  0.3245226333872763  0.6090850966362163  0.4350431420031264
  0.4198259938282731  0.6743221097044293  0.4448742168163029
  0.2409623426097290  0.7480253373336143  0.3926074667674495
  0.3251837242783186  0.8288829165338786  0.3893202987438477
  0.3388786802492683  0.8375818864837350  0.4516412592025028
  0.4222410704256124  0.9218269437084431  0.4535033535370077
  0.4943645910885661  0.9947357026257423  0.3864969730502936
  0.5777263087138369  0.0789796334546971  0.3883568647907067
  0.5914219502507994  0.0876831099175348  0.4506810238560419
  0.6756450109096424  0.1685394369835843  0.4473903375702048
  0.4967796700484395  0.2422415489275535  0.3951219573818850
  0.5920807292778628  0.3074789660832544  0.4049525557859129
  0.6086684550067067  0.3245535311310081  0.4351274048394801
  0.6741337140634842  0.4198494154919870  0.4449189969670710
  0.5777633220471716  0.5780662243063561  0.3895010216886965
  0.5875886544619943  0.5875655509757587  0.4463535730916257
  0.6707885945136001  0.6706952462820875  0.4518401812227629
  0.4933488093460421  0.7414747561827471  0.3885350867047151
  0.5771329923415152  0.8269955169773900  0.3862067891987487
  0.5885419974560319  0.8377795069519348  0.4532934425391668
  0.6721800083205335  0.9219728158155047  0.4535551529350788
  0.7446837158681421  0.9937239780979154  0.3870344910558256
  0.8279393094547253  0.0775609022793745  0.3870666298195303
  0.8390398792653179  0.0885684049394833  0.4529459095230683
  0.9228054002605511  0.1719121860568577  0.4529739845744596
  0.7479387380801447  0.2409040925702385  0.3926613731214984
  0.8286801887980405  0.3252842963218786  0.3893638157495041
  0.8375219062073689  0.3388522599154400  0.4516514456255268
  0.9218909824626808  0.4221572329371370  0.4534952559356489
  0.7412691632328293  0.4934341754616559  0.3885649437662773
  0.8269035991525208  0.5771744297857390  0.3862230652143833
  0.8379157492555172  0.5884223101412761  0.4532906839936351
  0.9221749613784280  0.6720226155429498  0.4535401777930542
  0.7434601169140671  0.7434641521354736  0.3857032799851031
  0.8275509923414736  0.8275040090077548  0.3858499659043449
  0.8386894723806615  0.8385137091629780  0.4540633661614484
  0.9217845690809299  0.9216974932891787  0.4548573393591539
 
  0.00000000E+00  0.00000000E+00  0.00000000E+00
  0.00000000E+00  0.00000000E+00  0.00000000E+00
  0.00000000E+00  0.00000000E+00  0.00000000E+00
  0.00000000E+00  0.00000000E+00  0.00000000E+00
  0.00000000E+00  0.00000000E+00  0.00000000E+00
  0.00000000E+00  0.00000000E+00  0.00000000E+00
  0.00000000E+00  0.00000000E+00  0.00000000E+00
  0.00000000E+00  0.00000000E+00  0.00000000E+00
  0.00000000E+00  0.00000000E+00  0.00000000E+00
  0.00000000E+00  0.00000000E+00  0.00000000E+00
  0.00000000E+00  0.00000000E+00  0.00000000E+00
  0.00000000E+00  0.00000000E+00  0.00000000E+00
  0.00000000E+00  0.00000000E+00  0.00000000E+00
  0.00000000E+00  0.00000000E+00  0.00000000E+00
  0.00000000E+00  0.00000000E+00  0.00000000E+00
  0.00000000E+00  0.00000000E+00  0.00000000E+00
  0.00000000E+00  0.00000000E+00  0.00000000E+00
  0.00000000E+00  0.00000000E+00  0.00000000E+00
  0.00000000E+00  0.00000000E+00  0.00000000E+00
  0.00000000E+00  0.00000000E+00  0.00000000E+00
  0.00000000E+00  0.00000000E+00  0.00000000E+00
  0.00000000E+00  0.00000000E+00  0.00000000E+00
  0.00000000E+00  0.00000000E+00  0.00000000E+00
  0.00000000E+00  0.00000000E+00  0.00000000E+00
  0.00000000E+00  0.00000000E+00  0.00000000E+00
  0.00000000E+00  0.00000000E+00  0.00000000E+00
  0.00000000E+00  0.00000000E+00  0.00000000E+00
  0.00000000E+00  0.00000000E+00  0.00000000E+00
  0.00000000E+00  0.00000000E+00  0.00000000E+00
  0.00000000E+00  0.00000000E+00  0.00000000E+00
  0.00000000E+00  0.00000000E+00  0.00000000E+00
  0.00000000E+00  0.00000000E+00  0.00000000E+00
  0.00000000E+00  0.00000000E+00  0.00000000E+00
  0.00000000E+00  0.00000000E+00  0.00000000E+00
  0.00000000E+00  0.00000000E+00  0.00000000E+00
  0.00000000E+00  0.00000000E+00  0.00000000E+00
  0.00000000E+00  0.00000000E+00  0.00000000E+00
  0.00000000E+00  0.00000000E+00  0.00000000E+00
  0.00000000E+00  0.00000000E+00  0.00000000E+00
  0.00000000E+00  0.00000000E+00  0.00000000E+00
  0.00000000E+00  0.00000000E+00  0.00000000E+00
  0.00000000E+00  0.00000000E+00  0.00000000E+00
  0.00000000E+00  0.00000000E+00  0.00000000E+00
  0.00000000E+00  0.00000000E+00  0.00000000E+00
  0.00000000E+00  0.00000000E+00  0.00000000E+00
  0.00000000E+00  0.00000000E+00  0.00000000E+00
  0.00000000E+00  0.00000000E+00  0.00000000E+00
  0.00000000E+00  0.00000000E+00  0.00000000E+00
  0.00000000E+00  0.00000000E+00  0.00000000E+00
  0.00000000E+00  0.00000000E+00  0.00000000E+00
  0.00000000E+00  0.00000000E+00  0.00000000E+00
  0.00000000E+00  0.00000000E+00  0.00000000E+00
  0.00000000E+00  0.00000000E+00  0.00000000E+00
  0.00000000E+00  0.00000000E+00  0.00000000E+00
  0.00000000E+00  0.00000000E+00  0.00000000E+00
  0.00000000E+00  0.00000000E+00  0.00000000E+00
  0.00000000E+00  0.00000000E+00  0.00000000E+00
  0.00000000E+00  0.00000000E+00  0.00000000E+00
  0.00000000E+00  0.00000000E+00  0.00000000E+00
  0.00000000E+00  0.00000000E+00  0.00000000E+00
  0.00000000E+00  0.00000000E+00  0.00000000E+00
  0.00000000E+00  0.00000000E+00  0.00000000E+00
