POSCAR file written by OVITO Basic 3.7.8
   1.00000000000000     
     9.8467199999999995    0.0000000000000000    0.0000000000000000
     4.9299999999999997    8.5284800000000001    0.0000000000000000
     0.0000000000000000    0.0000000000000000   50.0000000000000000
   C 
    31
Direct
  1.0005178781119992  1.0004423991268332  0.4399999999999977
  0.0826128746536371  0.0826550762248285  0.4399999999999977
  1.0012339098715428  0.2495173808921807  0.4399999999999977
  0.0829169070904515  0.3341007454326032  0.4399999999999977
  1.0002978139222010  0.4991427530414599  0.4399999999999977
  0.0837826035629859  0.5828162624218678  0.4399999999999977
  0.9998769884911037  0.7497689059541427  0.4399999999999977
  0.0837643089989855  0.8331627935834061  0.4399999999999977
  0.2494529009641965  1.0012636161042072  0.4399999999999977
  0.3341165670697249  0.0829295016032645  0.4399999999999977
  0.2489413817790964  0.2490443047186041  0.4399999999999977
  0.3328935418287174  0.3328514330321146  0.4399999999999977
  0.2535382811020866  0.4977714488086964  0.4399999999999977
  0.3305494127836464  0.5842769880595976  0.4399999999999977
  0.2539338553777776  0.7483040293780804  0.4399999999999977
  0.3324718146116707  0.8345073542810447  0.4399999999999977
  0.4991714085378683  1.0002433164758058  0.4399999999999977
  0.5829152567258937  0.0835513701196317  0.4399999999999977
  0.4976733200242522  0.2532587424988970  0.4399999999999977
  0.5844603401950008  0.3298610763816601  0.4399999999999977
  0.5847397443055347  0.5850603025452225  0.4399999999999977
  0.4982970821365376  0.7484235826925494  0.4399999999999977
  0.5826456994386362  0.8333297491840318  0.4399999999999977
  0.7498211609783554  0.9997967060258893  0.4399999999999977
  0.8332625786846874  0.0836183973495750  0.4399999999999977
  0.7484126414916739  0.2537804252767498  0.4399999999999977
  0.8343720272937335  0.3325213878293755  0.4399999999999977
  0.7481535569136688  0.4984349308189902  0.4399999999999977
  0.8332945205349107  0.5825982813905626  0.4399999999999977
  0.7499276486608029  0.7498984113603610  0.4399999999999977
  0.8334286998170664  0.8332633551515386  0.4399999999999977
 
  0.00000000E+00  0.00000000E+00  0.00000000E+00
  0.00000000E+00  0.00000000E+00  0.00000000E+00
  0.00000000E+00  0.00000000E+00  0.00000000E+00
  0.00000000E+00  0.00000000E+00  0.00000000E+00
  0.00000000E+00  0.00000000E+00  0.00000000E+00
  0.00000000E+00  0.00000000E+00  0.00000000E+00
  0.00000000E+00  0.00000000E+00  0.00000000E+00
  0.00000000E+00  0.00000000E+00  0.00000000E+00
  0.00000000E+00  0.00000000E+00  0.00000000E+00
  0.00000000E+00  0.00000000E+00  0.00000000E+00
  0.00000000E+00  0.00000000E+00  0.00000000E+00
  0.00000000E+00  0.00000000E+00  0.00000000E+00
  0.00000000E+00  0.00000000E+00  0.00000000E+00
  0.00000000E+00  0.00000000E+00  0.00000000E+00
  0.00000000E+00  0.00000000E+00  0.00000000E+00
  0.00000000E+00  0.00000000E+00  0.00000000E+00
  0.00000000E+00  0.00000000E+00  0.00000000E+00
  0.00000000E+00  0.00000000E+00  0.00000000E+00
  0.00000000E+00  0.00000000E+00  0.00000000E+00
  0.00000000E+00  0.00000000E+00  0.00000000E+00
  0.00000000E+00  0.00000000E+00  0.00000000E+00
  0.00000000E+00  0.00000000E+00  0.00000000E+00
  0.00000000E+00  0.00000000E+00  0.00000000E+00
  0.00000000E+00  0.00000000E+00  0.00000000E+00
  0.00000000E+00  0.00000000E+00  0.00000000E+00
  0.00000000E+00  0.00000000E+00  0.00000000E+00
  0.00000000E+00  0.00000000E+00  0.00000000E+00
  0.00000000E+00  0.00000000E+00  0.00000000E+00
  0.00000000E+00  0.00000000E+00  0.00000000E+00
  0.00000000E+00  0.00000000E+00  0.00000000E+00
  0.00000000E+00  0.00000000E+00  0.00000000E+00
